# FitSNAP generated Hash: 8296ba1279e3aef5d361451d307e88fb
pair_style mliap model mliappy FitTorch_Pytorch.pt descriptor sna LiF64_NEWJSON_pot.mliap.descriptor
pair_coeff * * Li F