# FitSNAP generated Hash: 223a1935356a2987aa09dc1e47bc2fda
pair_style mliap model mliappy FitTorch_Pytorch.pt descriptor sna LiF64_NEWJSON_pot.mliap.descriptor
pair_coeff * * Li F