64
Lattice="8.16 0.0 0.0 0.0 8.16 0.0 0.0 0.0 8.16" Properties=species:S:1:pos:R:3:forces:R:3 config_type=Default energy=-32490.796413715187 pbc="T T T"
Li       0.09862092      -0.08794627      -0.01155157      -0.52123730       0.44088786      -0.09088916
Li       0.02532203       2.05928584       2.03302571      -0.07851831      -0.22430945      -0.04296694
Li       2.06942076       0.06136882       1.94713377       0.08550733      -0.14764285       0.29050165
Li       2.05433813       2.03609581       0.00319910       0.00352626       0.06215609      -0.10947435
F        2.08028849       2.01194117       2.04363328      -0.14452744       0.15079810      -0.20117752
F       -0.01770322       2.07851550      -0.02435531       0.21819640      -0.05469372       0.04434248
F        2.06154088      -0.07322106      -0.03684031       0.07849003       0.39055832       0.20931479
F        0.07088304       0.02386789       1.92667645      -0.23604318      -0.17876241       0.57486274
Li       4.12844631      -0.05846016      -0.02276416       0.00677459       0.29520162       0.08064692
Li       4.12929934       2.05499239       2.00579770      -0.17888711      -0.02740150       0.08773390
Li       6.11093345      -0.07802090       2.02961720       0.23793165       0.21504475       0.00376152
Li       6.10267633       2.12019608       0.02483167       0.10689297      -0.38088918       0.04606717
F        6.15983051       2.11631805       2.05909055      -0.22275419      -0.39664488      -0.04394987
F        4.08610001       2.05936254      -0.03282063      -0.01553022      -0.02189472       0.16059116
F        6.18300723       0.02781161       0.04692009      -0.22832062      -0.13781122      -0.14525044
F        4.13461275      -0.03086280       2.03926683      -0.22040241       0.35559007      -0.02935528
Li       0.02881396       4.05645287      -0.00783728      -0.05329145       0.07302927      -0.00803417
Li       0.01987169       6.12342913       2.07978632      -0.07714380      -0.04382389      -0.17764296
Li       2.01024106       3.98680340       2.18657364       0.20319018       0.18247791      -0.56120274
Li       1.93407421       6.16160537       0.14306344       0.48074016      -0.43203170      -0.53871847
F        2.05993225       6.08381292       2.03174420      -0.16491678       0.12768880       0.15815016
F       -0.00374532       6.12664787      -0.04549804      -0.02914882      -0.31958130       0.41259624
F        2.01471199       4.08205967       0.01950789       0.05860051       0.05522954      -0.02840577
F       -0.01038305       4.01775536       2.12134313       0.00847974       0.44959746      -0.46372411
Li       4.02307521       4.12316679       0.03394673       0.05580264      -0.00085798      -0.06642231
Li       4.08588495       6.18329924       2.07976133       0.05680871      -0.36030444      -0.24813995
Li       6.09186922       4.09772418       2.03375544       0.08796633       0.03217295      -0.00752047
Li       6.16403627       6.00881615      -0.04703009      -0.20284025       0.47803845       0.16522506
F        6.12356414       6.09657341       2.05426151       0.17722721      -0.01515715       0.00201060
F        4.08583838       6.17334419       0.02278502      -0.02370631      -0.44078527      -0.01994788
F        6.08521181       4.07789013       0.00328873       0.17894367      -0.01422821       0.04023926
F        4.11413801       4.08503704       2.03002233      -0.21018588       0.04887507       0.20798528
Li       0.10628991      -0.02033426       4.03578060      -0.59512198       0.12460862       0.09359704
Li      -0.06186407       2.00478028       6.11779582       0.22916806       0.03572826       0.11917846
Li       2.05230671       0.05001649       6.15302101       0.06302872      -0.32497701      -0.14812056
Li       2.00948235       2.00900652       4.16289869      -0.00539314       0.18053853      -0.24324149
F        2.04218858       1.98051126       6.14152823      -0.08574850       0.36866489      -0.01143522
F       -0.01826890       2.04717937       4.13263161      -0.07656093      -0.08967380      -0.16779050
F        1.96419973       0.01468887       3.97977254       0.55748004      -0.17672919       0.33354392
F        0.01916489      -0.06283189       6.14963087      -0.03874031       0.48354935      -0.22917166
Li       4.06935021      -0.01513720       4.10007261       0.03575037       0.12217739       0.01151364
Li       4.17283862       2.16871903       6.02665198      -0.46113553      -0.43330131       0.39894139
Li       6.07130305       0.01940596       6.20065964       0.24286971      -0.20004829      -0.14031341
Li       6.09620608       2.07003799       4.02124136       0.07916828      -0.29981314       0.20898826
F        6.11060374       2.02163485       6.18543130       0.03205365       0.26105432      -0.41506321
F        3.96957272       1.98850917       4.06201667       0.71828255       0.18752729       0.05104585
F        6.12274850      -0.05170202       4.12990379       0.03099307       0.36139176      -0.22293905
F        4.09681733      -0.03318679       6.16589607      -0.13005061       0.18564473      -0.34015653
Li      -0.11736128       4.08846220       4.04033905       0.43740890      -0.06813826       0.37143756
Li       0.00992273       6.20024836       6.09388550       0.04683824      -0.39219662      -0.03115170
Li       2.03153030       4.18873886       6.12439132      -0.13630147      -0.36332754      -0.11572573
Li       2.13557943       6.12095337       3.98872454      -0.58254313      -0.02170754       0.30777558
F        2.04752216       6.10634816       6.05848472      -0.23149336       0.36119584       0.08412202
F       -0.03606490       6.13025898       4.04963884       0.36552635      -0.02844382      -0.00927396
F        2.04067695       4.08140559       4.04300081       0.02255163      -0.00968482       0.50794703
F       -0.01756114       4.18164589       6.10378462       0.04705447      -0.45538372       0.00906981
Li       4.16402916       4.18156714       4.11980750      -0.53303017      -0.16264599      -0.30469669
Li       3.96281114       6.15287731       6.13641570       0.45528653      -0.07167764       0.05105922
Li       6.15164454       4.08998612       6.17327303      -0.08030265      -0.00486349      -0.13196068
Li       6.22488573       6.13564349       4.12226738      -0.51643783       0.03634224       0.02397551
F        6.11993393       6.06154624       6.13911444      -0.09042070       0.32083009      -0.13110527
F        4.00761563       6.18516322       4.07819258       0.52809571      -0.23068063       0.02555776
F        6.06631261       4.06585329       4.09088040       0.21399265       0.08643447       0.07899319
F        4.07053107       4.10956007       6.07487777       0.02010754       0.05707945       0.26419261
64
Lattice="8.16 0.0 0.0 0.0 8.16 0.0 0.0 0.0 8.16" Properties=species:S:1:pos:R:3:forces:R:3 config_type=Default energy=-32490.783392522764 pbc="T T T"
Li       0.03310623       0.04704238      -0.10592698      -0.14461306      -0.21593795       0.49146859
Li       0.02858031       1.97748784       1.94312302      -0.11211899       0.10126354       0.31979702
Li       2.15725707      -0.06890766       2.02380006      -0.25439363       0.15657485      -0.18651042
Li       2.02427009       2.02518079       0.03149281       0.32158085       0.16785092      -0.09950311
F        2.07642436       1.99094327       1.96585098      -0.02416525       0.27182518       0.42036225
F       -0.04847792       2.10690819      -0.02187825       0.32786333      -0.24359424      -0.00642029
F        2.09183955      -0.01677106       0.00226418      -0.21929529       0.11472428      -0.06362058
F        0.09543848      -0.00245465       1.98527366      -0.39415940      -0.15348978       0.19672540
Li       4.09035980      -0.00357494      -0.04909550       0.27265796       0.17250307       0.18909078
Li       4.13081204       2.02922799       2.13680392      -0.00078496      -0.03169446      -0.44112234
Li       6.17297716      -0.01440560       2.08633935      -0.07420786       0.09122983      -0.40226376
Li       6.09358754       2.10283151      -0.05550754      -0.03371098      -0.39746918       0.24231255
F        6.18447627       2.06767208       1.99915994      -0.39464354      -0.33248205       0.18215729
F        4.10037227       2.10120253      -0.05927097      -0.09152422      -0.29896211       0.36589350
F        6.18514104       0.03678420      -0.00840683      -0.17685157      -0.19038121      -0.00003368
F        4.15058565      -0.09147084       2.04929448      -0.22866104       0.35385535      -0.16298229
Li       0.02102163       4.10571497       0.07690952       0.02205284       0.04384780      -0.18908821
Li       0.04992452       6.11135180       2.09157198      -0.26288161       0.05132687      -0.23805635
Li       2.06892761       4.07787574       2.05504124      -0.04588411      -0.12214756       0.02611441
Li       2.07385773       6.15385972      -0.08845496      -0.05404555      -0.19008271       0.27639968
F        2.01345017       6.07850414       2.04142168       0.12488424       0.04082958       0.01317534
F        0.00889301       6.13075902      -0.01290042       0.03459518      -0.01188414       0.19081933
F        2.07051651       4.05069987       0.06889509      -0.16075751       0.31795585      -0.17470522
F       -0.05654462       4.02937948       2.13400300       0.47157805       0.23669984      -0.46087610
Li       4.17649441       4.10493695      -0.01987592      -0.53462374      -0.11099387      -0.06918393
Li       4.03565439       6.00833485       2.01941973       0.21321952       0.74730564      -0.03546678
Li       6.13616591       4.04344491       1.98304107      -0.05959681       0.04706707       0.41259470
Li       6.13939558       6.16891216       0.07170542       0.03978109       0.04433322      -0.21732866
F        6.10529248       6.08347346       2.06212726       0.32181456       0.12107464      -0.10613038
F        4.11200298       6.16024828      -0.05700542       0.01817433      -0.27587003       0.22309126
F        6.10600553       4.05158206      -0.03746890       0.24493867       0.46986981       0.39085091
F        4.13142281       4.16867719       2.09354517      -0.23319748      -0.83379847      -0.36628045
Li       0.02315214      -0.01097403       4.10181554      -0.10060406       0.07574692      -0.24540712
Li       0.02247113       2.05760236       6.18544538      -0.28557928       0.09918610      -0.28498150
Li       2.04571254       0.09134442       6.16376559       0.12743092      -0.38873541      -0.11426817
Li       1.94680143       1.99565136       4.04648189       0.35770686       0.27159378       0.00858105
F        2.00135399       2.00080460       6.23136253      -0.00398495       0.25629188      -0.55574378
F       -0.01182160       1.97630515       4.09691476      -0.01585135       0.17165949       0.13112224
F        2.00742391       0.05645968       3.97703615       0.06682469      -0.43760739       0.55845578
F       -0.02159341      -0.03772546       6.09032085       0.16240765       0.45746477       0.01882739
Li       4.00111837      -0.02479145       4.10820254       0.15389268       0.05352747      -0.20955519
Li       4.13672181       2.06289110       6.06620111      -0.39185184       0.08359417       0.16902283
Li       6.09920488      -0.04234632       6.08202146       0.03033075       0.15572947       0.31957693
Li       6.08498558       1.93576072       4.11418242       0.05837657       0.68918027      -0.04451243
F        6.04435042       2.02126374       6.15984984       0.64961798      -0.02468230      -0.32566375
F        4.03284101       1.98378350       4.06575324      -0.07295599       0.12190768       0.10893545
F        6.03763023       0.03774927       4.07820461       0.43482700      -0.37573927       0.01650081
F        4.10650733      -0.02689479       6.11115508      -0.20620119       0.11721928      -0.11597152
Li      -0.04143021       4.03734280       4.08345078      -0.15961337       0.05320223       0.24979728
Li       0.00189350       6.19670035       6.12114499       0.00057490      -0.44945605       0.05384038
Li       1.98349516       4.11105820       6.14902115       0.28426287      -0.05705065       0.06630096
Li       1.97766934       6.18749199       4.07375288       0.12330790      -0.23636328       0.11785717
F        2.07094765       6.20545692       6.11631881      -0.19854368      -0.10784016      -0.23370399
F       -0.09042599       6.10927022       4.11225388       0.48353341       0.20926260      -0.27248235
F        2.04610485       4.09710991       4.12405585      -0.40014903      -0.13229852      -0.26292429
F        0.01414652       4.17202685       6.16837189       0.09133987      -0.44283341      -0.08919557
Li       3.99633389       4.19928264       4.05586162       0.43737291      -0.42754565       0.35688951
Li       4.13434614       6.11151724       6.07698747      -0.17642014      -0.06489842       0.05632252
Li       6.18650800       4.13804569       6.19573289      -0.19766257      -0.23966971      -0.56154778
Li       6.11644173       6.22212078       4.04578330      -0.21540110      -0.50334502       0.07270582
F        6.15300176       6.08991576       6.09542145      -0.28786550       0.37830600       0.08783649
F        4.03056353       6.13496219       4.01828422       0.08656817       0.18635359       0.41199281
F        6.08026181       3.97367559       4.17290793       0.06657632       0.25372283      -0.21830516
F        4.00863536       4.10004830       6.11506494       0.18470834       0.11276793       0.00841752
64
Lattice="8.16 0.0 0.0 0.0 8.16 0.0 0.0 0.0 8.16" Properties=species:S:1:pos:R:3:forces:R:3 config_type=Default energy=-32490.693131130887 pbc="T T T"
Li      -0.10175791      -0.00064959      -0.00162336       0.45200349      -0.02833378       0.09611389
Li       0.05591042       2.12083975       2.00872881      -0.17452498      -0.47650479       0.19422475
Li       2.07164594       0.02678328       2.03888924      -0.21334036      -0.15130332       0.05810815
Li       2.08707275       2.01935471      -0.01858450      -0.08770613       0.24185566       0.19777853
F        2.01084201       2.11504141       1.99183886       0.33574658      -0.37026360       0.14282486
F        0.00011259       2.11550807       0.03180567       0.09845796      -0.41918726      -0.25727301
F        2.07786434       0.02714668      -0.00270106      -0.44662218      -0.05254351       0.19783303
F        0.07028581      -0.01530895       2.06085297      -0.17612626       0.00360494      -0.23762080
Li       3.94411595      -0.01254114       0.00870567       0.77643492       0.14480178      -0.09591566
Li       4.11798100       2.05822794       2.12513654      -0.27139426      -0.04581237      -0.10981091
Li       6.27226729       0.00687422       1.99842930      -0.44210450      -0.06722732       0.31657414
Li       6.09933629       2.02024635       0.05532351       0.11406428       0.11612065      -0.40539742
F        6.10837284       2.01540567       2.05146332       0.07040135      -0.09380118       0.09689293
F        4.14089040       2.05469943       0.01030097      -0.46096712      -0.01992782       0.08713304
F        6.16128543       0.09430671       0.01753458      -0.29791156      -0.60962349       0.03384005
F        4.05011283      -0.07900357       2.07145971      -0.07989642       0.52079122      -0.28843834
Li       0.00408471       4.02545419      -0.09071079      -0.01879963       0.41958784       0.12041130
Li      -0.08453995       6.02311408       2.02739875       0.29260172       0.17865571       0.10998960
Li       1.91821630       4.10479173       2.05718239       0.44405648       0.01561866      -0.05647935
Li       2.06428758       6.11498312       0.04664831      -0.19601167       0.10454478      -0.09998905
F        2.07331529       6.06805389       2.11269658      -0.42203809       0.30308435      -0.40390001
F        0.02458427       6.05328376      -0.01960104      -0.09609743       0.29633959       0.27878952
F        2.08939513       4.16696334      -0.02909653      -0.25947927      -0.51723204       0.20429086
F       -0.07710555       4.01733414       2.05024404       0.18617824       0.38989472      -0.02053178
Li       4.09498891       4.08262276       0.00058439      -0.07730861       0.05097360      -0.03342713
Li       4.05734320       6.10474276       2.02945470       0.15371553      -0.06738416       0.11255402
Li       6.04385180       3.93548394       1.94372961       0.11980683       0.58287634       0.38696443
Li       6.07102707       6.16924154       0.00793320       0.22659027      -0.05217045      -0.08357952
F        6.13755312       6.16056966       2.05395812      -0.19630348      -0.22750430      -0.45262287
F        4.05251186       6.14456475      -0.05788256       0.25861718      -0.01999647       0.29415775
F        6.11703025       4.12338953      -0.01887411      -0.09400302      -0.15833271      -0.02337464
F        3.98641722       4.08449988       2.02619057       0.55314620      -0.17086039      -0.08275754
Li       0.05541317      -0.00800888       4.09727247      -0.30458536      -0.26978269      -0.09691144
Li       0.04567525       2.03963487       6.09808441      -0.29142056       0.06393529       0.11294045
Li       1.89485319       0.03743299       6.21390032       0.42526662      -0.21228441      -0.41530850
Li       2.09027429       2.06470973       4.04183968      -0.25018243      -0.00943671       0.19058999
F        2.00510037       2.02438954       6.15981529       0.23525539       0.09114138       0.08260379
F        0.10073233       1.95428936       4.10962592      -0.48276182       0.40548690      -0.13984033
F        1.99442457      -0.03132827       4.07626357       0.40156134       0.18424965       0.11248974
F       -0.03877124      -0.02556824       6.18038482       0.01808640       0.23705619      -0.25726915
Li       4.04894331      -0.01090144       4.06559160       0.07716154      -0.03953786       0.13783461
Li       4.07957525       2.10380365       6.13391345       0.13133564      -0.31471241       0.06149737
Li       6.08288664      -0.01545848       6.00427353       0.25479884       0.05929137       0.23035590
Li       6.15482414       2.04806334       4.11985597      -0.10812915      -0.15680239      -0.03105863
F        6.12790362       2.06262280       6.14808796       0.21964316       0.07064534      -0.20345217
F        4.00109264       2.08452921       4.19459216       0.41889570      -0.25903498      -0.74627772
F        6.03926843      -0.04407338       4.01119967       0.47691591       0.35929786       0.18555757
F        4.17994861       0.01808471       6.08565328      -0.55184496      -0.07834553       0.25163253
Li       0.03131763       4.08615064       4.09923883      -0.05038482      -0.07771998      -0.10914628
Li       0.02507956       6.09757429       6.13304572       0.01675252       0.07366047      -0.05373985
Li       2.08951492       4.08090019       6.22051409      -0.18110006       0.16208137      -0.55639787
Li       2.10484208       6.17369955       4.09731538      -0.18160245      -0.29096676       0.03920902
F        2.05108162       6.18707369       6.10842705       0.06361956      -0.10003199       0.09358547
F       -0.12238896       6.05051151       4.14960465       0.69004647       0.39231464      -0.57651364
F        2.06864836       4.09452079       4.07355669      -0.35421762      -0.01433285       0.08398318
F        0.07052791       4.11828232       6.03616021      -0.22905956      -0.49259139       0.53217142
Li       4.03681822       4.14503066       4.11387897       0.07182085      -0.38888710      -0.21970538
Li       4.10693963       6.15954442       6.12797058      -0.04022177      -0.02214360      -0.22002754
Li       6.13178857       4.11244436       6.08244680      -0.00931252      -0.11575529       0.00305627
Li       6.11558549       6.03620597       4.02696211      -0.15401583       0.22448043       0.08686333
F        6.21468807       6.11403699       6.09356013      -0.70268883      -0.02439563       0.25613967
F        4.09909736       6.06006126       4.04766966      -0.00727776       0.41992542       0.30083901
F        6.09015676       4.01927631       4.01584225       0.06935131       0.02816049       0.16308513
F        4.05515125       4.07573188       6.08180363       0.25710871       0.27429420       0.42385072
64
Lattice="8.16 0.0 0.0 0.0 8.16 0.0 0.0 0.0 8.16" Properties=species:S:1:pos:R:3:forces:R:3 config_type=Default energy=-32490.818932089504 pbc="T T T"
Li       0.07941706      -0.06414297      -0.04550242      -0.40987293       0.20380338       0.15205845
Li       0.01822748       2.06327378       1.97781919      -0.01116012      -0.00315731       0.24888017
Li       2.06518701      -0.02937051       2.04815969      -0.06229055       0.22449251      -0.01828489
Li       2.04158483       2.06922816       0.11476172      -0.07665786      -0.07045097      -0.28479098
F        2.03583768       2.15777150       2.08983106       0.22344299      -0.52402720      -0.37226983
F       -0.01985957       2.06000801      -0.04035499       0.15899297      -0.09371762       0.16315095
F        2.04817203       0.04586813       0.01453799      -0.19082730      -0.24494587      -0.08464730
F        0.01528287       0.05627481       2.05214685       0.07914951      -0.29786811      -0.17815383
Li       3.95574562       0.01302260      -0.08586447       0.52644944      -0.04027654       0.46922241
Li       4.03445702       2.12031665       2.08958050       0.18280007      -0.26101730      -0.17033126
Li       6.03659635      -0.03704366       1.94783763       0.47487806       0.16717472       0.25573549
Li       6.10328815       2.05547968       0.05097512       0.03860404      -0.14210855      -0.26253065
F        6.14569240       2.06100544       2.04340459      -0.20666399      -0.07920119      -0.03293193
F        4.09150999       2.01953501       0.01797122      -0.20003261       0.26275485       0.14388930
F        6.13526105       0.00953164      -0.00191843      -0.04503359      -0.17200479      -0.06880135
F        4.13179678       0.03950993       2.04962345      -0.47736097      -0.16149850      -0.08985403
Li      -0.02021901       4.07169831       0.02744633       0.05162846      -0.11501816       0.02475609
Li      -0.03698538       6.08999039       2.09812314       0.11243369       0.15157534      -0.16821910
Li       2.03976604       4.18375413       2.05565326      -0.21327146      -0.30427529      -0.12827681
Li       2.05417753       6.09696003      -0.02181199      -0.17823302       0.06199282      -0.02648490
F        2.04355744       6.16318066       1.94787953       0.13132176      -0.10557014       0.48830845
F       -0.02109453       6.04864905       0.10825719       0.25237918       0.35130122      -0.71607732
F        2.02718192       4.04460408       0.01738734       0.00171647       0.32604196      -0.08558009
F       -0.01090203       4.10178621       2.03575525       0.00361162      -0.10972632       0.26213907
Li       3.99817751       4.10738615       0.01264288       0.38458719      -0.12428697       0.01699086
Li       4.10926931       6.06155651       2.04032346       0.02229581       0.41672723      -0.14556848
Li       6.12588233       4.06807303       2.00689865       0.10363487       0.06404713       0.33996164
Li       6.17404712       6.13804068      -0.03173040      -0.23388088      -0.04492046       0.13297601
F        6.15139549       6.11203801       2.05405676      -0.31182789       0.03028319       0.02671836
F        4.02031850       6.10049307      -0.05803375       0.23669135       0.21434695       0.23373922
F        6.14915779       4.06728865       0.13471997      -0.29931898       0.14855302      -0.88827083
F        4.09685873       4.13302229       2.08402535      -0.07718031      -0.30652860      -0.31246295
Li      -0.03743053      -0.01822131       4.06309193       0.02926400       0.14606753      -0.02395957
Li       0.09153776       2.05005959       6.11746460      -0.36197360      -0.22008076      -0.01030600
Li       2.03708949      -0.00051306       6.07443187      -0.20907465      -0.01322497       0.07230910
Li       2.05639560       2.02591431       4.06560032      -0.03720202       0.11537477      -0.00937089
F        2.05835652       2.03471379       6.23508918       0.00927756       0.10862769      -0.51613213
F        0.10347190       2.00864958       4.04711803      -0.50355868       0.05661151       0.24049787
F        2.14251745      -0.02510713       4.04875985      -0.25980606       0.05505471       0.14669231
F       -0.03500904       0.00051703       6.07856893       0.34362649      -0.12626364       0.20665268
Li       4.12042899       0.05657639       4.09152017       0.05720466      -0.20144646      -0.15091251
Li       3.98954535       1.99838359       6.12650353       0.46800268       0.19345393       0.14159742
Li       6.06307385       0.03030039       6.15051187       0.32736017       0.07648380      -0.07780226
Li       6.12348123       1.99932424       3.97002327       0.10728300      -0.07587290       0.50891839
F        6.04554925       1.99500158       6.11698012       0.16429200       0.34985138       0.00219855
F        4.08316973       2.00258605       4.12185215      -0.14331311       0.37768970      -0.17041636
F        6.11597985      -0.01229909       4.06696062      -0.10136716      -0.07140228      -0.00401863
F        4.05231872       0.00525171       6.14225193      -0.11242752      -0.09397628      -0.33234373
Li      -0.07583430       4.03702330       4.16549155       0.34163491      -0.08970748      -0.76450424
Li       0.02882354       5.99326938       6.04660003      -0.21940868       0.44515923       0.16068012
Li       2.10463077       4.13183855       6.16715941      -0.14562016      -0.33116102      -0.17797026
Li       2.07991801       6.14487871       3.99971627      -0.12125745      -0.19286927       0.11270134
F        1.99777350       6.09640138       6.08464108       0.20552525       0.18279313       0.11271677
F        0.02701584       6.14364229       4.08898143      -0.16632677      -0.26266075      -0.08296400
F        2.02649774       4.06688394       3.96178009       0.20921066       0.30648335       0.84311768
F       -0.00504033       4.01675370       6.02907058      -0.04943840       0.34669381       0.62197763
Li       4.09663958       4.07853891       4.07090792      -0.21631410      -0.17398017       0.15300205
Li       4.09884765       6.20869635       6.03528477      -0.11393932      -0.37665432       0.34202006
Li       6.03222041       4.06295634       6.09380786       0.23461905      -0.19954256       0.22485221
Li       6.08083720       6.08767392       4.08583213       0.23558295       0.18213775      -0.05991280
F        6.07477923       6.18011053       6.12255464       0.33046117      -0.42714970      -0.09185152
F        4.10804893       6.03991991       4.05307563      -0.21537642       0.44594675       0.06451430
F        6.06858111       4.01121579       4.10399149       0.28315164       0.29149383      -0.09159441
F        4.10759144       4.14435462       6.18256513      -0.36109685      -0.24642528      -0.31537833
