64
Lattice="28.160000039244697 0.0 0.0 0.0 28.160000039244697 0.0 0.0 0.0 28.160000039244697" Properties=species:S:1:pos:R:3:REF_forces:R:3 config_type=LIF64_ISOLATED REF_energy=-32503.611287936805 pbc="T T T"
Li       0.00000000       0.00000000       0.00000000       0.88514160       0.88514134       0.88514314
Li       0.00000000       2.04000051       2.04000051       0.35708895       0.01588350       0.01588325
Li       2.04000051       0.00000000       2.04000051       0.01588530       0.35709100       0.01588376
Li       2.04000051       2.04000051       0.00000000       0.01588273       0.01588119       0.35708792
F        2.04000051       2.04000051       2.04000051      -0.01523636      -0.01523790      -0.01523687
F        0.00000000       2.04000051       0.00000000      -0.11962006      -0.17877754      -0.11962032
F        2.04000051       0.00000000       0.00000000      -0.17877703      -0.11962212      -0.11962057
F        0.00000000       0.00000000       2.04000051      -0.11962083      -0.11962032      -0.17877832
Li       4.08000103       0.00000000       0.00000000       0.22279252       0.48361833       0.48361833
Li       4.08000103       2.04000051       2.04000051       0.02182301      -0.01994610      -0.01994276
Li       6.11999873       0.00000000       2.04000051      -0.48435084       0.48363607      -0.22055489
Li       6.11999873       2.04000051       0.00000000      -0.48435161      -0.22055823       0.48363762
F        6.11999873       2.04000051       2.04000051       0.30347528       0.03272474       0.03272423
F        4.08000103       2.04000051       0.00000000      -0.03388483       0.03271677      -0.30350999
F        6.11999873       0.00000000       0.00000000      -0.38625734       0.38637818       0.38637896
F        4.08000103       0.00000000       2.04000051      -0.03388637      -0.30351384       0.03271677
Li       0.00000000       4.08000103       0.00000000       0.48361782       0.22279072       0.48362013
Li       0.00000000       6.11999873       2.04000051       0.48363787      -0.48435213      -0.22055154
Li       2.04000051       4.08000103       2.04000051      -0.01994019       0.02182661      -0.01994328
Li       2.04000051       6.11999873       0.00000000      -0.22055386      -0.48435161       0.48363813
F        2.04000051       6.11999873       2.04000051       0.03272346       0.30347759       0.03272346
F        0.00000000       6.11999873       0.00000000       0.38637201      -0.38624809       0.38637201
F        2.04000051       4.08000103       0.00000000       0.03271497      -0.03388457      -0.30351230
F        0.00000000       4.08000103       2.04000051      -0.30351307      -0.03388431       0.03271575
Li       4.08000103       4.08000103       0.00000000      -0.01391198      -0.01391224       0.35717919
Li       4.08000103       6.11999873       2.04000051      -0.01392047      -0.35780860       0.01590047
Li       6.11999873       4.08000103       2.04000051      -0.35780783      -0.01392072       0.01589867
Li       6.11999873       6.11999873       0.00000000      -0.88658785      -0.88658682       0.88526913
F        6.11999873       6.11999873       2.04000051       0.11968794       0.11968742      -0.17885622
F        4.08000103       6.11999873       0.00000000       0.17753210       0.11969514      -0.11962366
F        6.11999873       4.08000103       0.00000000       0.11969565       0.17753056      -0.11962315
F        4.08000103       4.08000103       2.04000051       0.01407705       0.01407653      -0.01519651
Li       0.00000000       0.00000000       4.08000103       0.48361911       0.48361756       0.22278712
Li       0.00000000       2.04000051       6.11999873       0.48363916      -0.22055206      -0.48435290
Li       2.04000051       0.00000000       6.11999873      -0.22055051       0.48363865      -0.48435084
Li       2.04000051       2.04000051       4.08000103      -0.01994122      -0.01993942       0.02182327
F        2.04000051       2.04000051       6.11999873       0.03272449       0.03272397       0.30347348
F        0.00000000       2.04000051       4.08000103      -0.30351153       0.03271446      -0.03388457
F        2.04000051       0.00000000       4.08000103       0.03271446      -0.30351359      -0.03388534
F        0.00000000       0.00000000       6.11999873       0.38636944       0.38636816      -0.38624809
Li       4.08000103       0.00000000       4.08000103      -0.01391352       0.35718048      -0.01391455
Li       4.08000103       2.04000051       6.11999873      -0.01391995       0.01589944      -0.35780757
Li       6.11999873       0.00000000       6.11999873      -0.88658502       0.88526630      -0.88658450
Li       6.11999873       2.04000051       4.08000103      -0.35780680       0.01589919      -0.01392252
F        6.11999873       2.04000051       6.11999873       0.11969051      -0.17885288       0.11968999
F        4.08000103       2.04000051       4.08000103       0.01407602      -0.01519599       0.01407705
F        6.11999873       0.00000000       4.08000103       0.11970054      -0.11962829       0.17753030
F        4.08000103       0.00000000       6.11999873       0.17752953      -0.11962392       0.11969694
Li       0.00000000       4.08000103       4.08000103       0.35717894      -0.01390838      -0.01391224
Li       0.00000000       6.11999873       6.11999873       0.88526836      -0.88658682      -0.88658553
Li       2.04000051       4.08000103       6.11999873       0.01589996      -0.01392072      -0.35780706
Li       2.04000051       6.11999873       4.08000103       0.01590047      -0.35780603      -0.01392098
F        2.04000051       6.11999873       6.11999873      -0.17885391       0.11968948       0.11968999
F        0.00000000       6.11999873       4.08000103      -0.11962572       0.11969874       0.17753159
F        2.04000051       4.08000103       4.08000103      -0.01519651       0.01407653       0.01407782
F        0.00000000       4.08000103       6.11999873      -0.11962263       0.17752953       0.11969539
Li       4.08000103       4.08000103       4.08000103       0.02182532       0.02182892       0.02182404
Li       4.08000103       6.11999873       6.11999873       0.22281000      -0.48440612      -0.48440535
Li       6.11999873       4.08000103       6.11999873      -0.48440458       0.22281206      -0.48440535
Li       6.11999873       6.11999873       4.08000103      -0.48440355      -0.48440252       0.22281231
F        6.11999873       6.11999873       6.11999873      -0.38642781      -0.38642703      -0.38642806
F        4.08000103       6.11999873       4.08000103      -0.03382826       0.30354727      -0.03382980
F        6.11999873       4.08000103       4.08000103       0.30354547      -0.03382826      -0.03382800
F        4.08000103       4.08000103       6.11999873      -0.03382749      -0.03382878       0.30354393
64
Lattice="28.160000039244697 0.0 0.0 0.0 28.160000039244697 0.0 0.0 0.0 28.160000039244697" Properties=species:S:1:pos:R:3:REF_forces:R:3 config_type=LIF64_ISOLATED REF_energy=-32503.615047053427 pbc="T T T"
Li      -0.00236341       0.00009672      -0.00258806       0.87886348       0.89188278       0.88674828
Li       0.00356939       2.03194611       2.04219902       0.35132891       0.03874447       0.01470928
Li       2.04093604      -0.00492045       2.03918277       0.01610488       0.37665221       0.02045390
Li       2.03213237       2.03711050      -0.00063457       0.03387968       0.04257773       0.36230366
F        2.04156666       2.03867351       2.04035397      -0.02098252      -0.03364340      -0.00802493
F       -0.00305677       2.04024653       0.00185819      -0.11283132      -0.18561719      -0.12629130
F        2.03664312       0.00209857      -0.00113857      -0.17017695      -0.13159240      -0.11767965
F        0.00044120       0.00614368       2.03896165      -0.11441820      -0.14436024      -0.17206362
Li       4.07143741       0.00179599      -0.00362785       0.24759878       0.48735852       0.48187538
Li       4.07693345       2.03525387       2.03244688       0.02037728      -0.00715178      -0.00844710
Li       6.12041037      -0.00305974       2.03678159      -0.48364764       0.48613699      -0.21964137
Li       6.11980046       2.04185678       0.00122429      -0.48607219      -0.23153118       0.47087492
F        6.12215913       2.03626754       2.03859126       0.29971221       0.05837330       0.02783193
F        4.07982281       2.04206006      -0.00231169      -0.02726706       0.00815734      -0.29822457
F        6.11983787      -0.00060805      -0.00294221      -0.39263394       0.38759946       0.38933264
F        4.08421059      -0.00035909       2.04227005      -0.06157072      -0.30649041       0.01730481
Li       0.00410091       4.07859622       0.00630922       0.47459171       0.22516873       0.47864248
Li      -0.00294511       6.12406076       2.04402600       0.49942445      -0.48939535      -0.22878910
Li       2.03746115       4.08411107       2.05079230      -0.01294422       0.00937758      -0.05038514
Li       2.03777318       6.10912002       0.00034262      -0.21483315      -0.46546557       0.48628791
F        2.04330645       6.11809961       2.04176017       0.01858573       0.30258079       0.03333847
F       -0.00144189       6.12031885      -0.00004864       0.39308028      -0.39551614       0.39468002
F        2.04438031       4.07595219      -0.00020633       0.00282256      -0.02004792      -0.30831049
F        0.00522281       4.08017511       2.04051462      -0.31334548      -0.03133455       0.04139810
Li       4.08312953       4.08370459       0.00041933      -0.03442141      -0.02573983       0.35607413
Li       4.07780560       6.11596630       2.03767560      -0.01088605      -0.34492532       0.01133137
Li       6.12320886       4.07232204       2.04479477      -0.36752068       0.01346358       0.01204073
Li       6.12359998       6.11013978      -0.01280414      -0.89821823      -0.87429180       0.90509979
F        6.11399053       6.11913045       2.04331314       0.13123116       0.11083023      -0.17994380
F        4.07964750       6.11852835       0.00187016       0.18026647       0.11283158      -0.13744963
F        6.12119095       4.08418037      -0.00716177       0.12514099       0.16498640      -0.10372859
F        4.07548180       4.07598845       2.03587978       0.04698511       0.01638873       0.00389625
Li       0.00501292       0.00270323       4.08060404       0.46338915       0.48494297       0.22927067
Li      -0.00148277       2.04009895       6.12219353       0.47941381      -0.22029880      -0.48470334
Li       2.04346536       0.00201165       6.12152779      -0.22884387       0.48705076      -0.47940738
Li       2.04273486       2.03991560       4.08666175      -0.01928790      -0.01009775       0.00668101
F        2.03910996       2.04543253       6.12500005       0.02936405      -0.00090297       0.28935349
F       -0.00350088       2.04124876       4.08164951      -0.28232410       0.03032488      -0.03284147
F        2.04192483       0.00077153       4.08034847       0.02491476      -0.30275408      -0.02756043
F       -0.00563586       0.00352319       6.11719307       0.40491172       0.38255290      -0.38272439
Li       4.07669230       0.00225705       4.08364456       0.00150512       0.35569284      -0.02983277
Li       4.08882877       2.04014994       6.12011514      -0.03350353       0.04679871      -0.35582859
Li       6.11920246       0.00142980       6.11627391      -0.87291961       0.87860380      -0.88368713
Li       6.11946899       2.04000189       4.08129504      -0.35685549       0.01691143      -0.02000832
F        6.12247110       2.04504189       6.12156241       0.11549447      -0.20582144       0.11452568
F        4.08164484       2.04265443       4.08337534       0.01208444      -0.04011538       0.00162571
F        6.12336988       0.00035985       4.07802363       0.10990875      -0.11469228       0.19953972
F        4.07803950      -0.00115772       6.11813941       0.18709789      -0.11148740       0.12132007
Li       0.00428609       4.07743747       4.08305678       0.34683770      -0.01754161      -0.02803531
Li       0.00134658       6.11876880       6.11385680       0.87737738      -0.87847319      -0.86511348
Li       2.03751941       4.07952354       6.12233168       0.04363779      -0.01469745      -0.34934916
Li       2.03652810       6.11841361       4.09493349       0.03022177      -0.35234758      -0.05049595
F        2.03697591       6.11729544       6.12226864      -0.17770282       0.13272703       0.10891861
F        0.00259302       6.12502447       4.07826802      -0.12433392       0.10755567       0.19061388
F        2.04091391       4.07851454       4.07816531      -0.03247175       0.01615116       0.02949081
F        0.00170277       4.08155922       6.12131669      -0.12836978       0.17839728       0.10654549
Li       4.07950233       4.08049034       4.06771529       0.02428561       0.01795967       0.06330930
Li       4.08888127       6.12750977       6.11282080       0.20743686      -0.52078517      -0.46796160
Li       6.12104135       4.08064095       6.11888568      -0.49704849       0.22511705      -0.48598503
Li       6.11574655       6.12716614       4.08060692      -0.47790509      -0.50566143       0.20864914
F        6.11993872       6.11618677       6.12046038      -0.38180779      -0.36085073      -0.38691040
F        4.07780769       6.11549317       4.08471658      -0.02951806       0.32504555      -0.03739335
F        6.11773182       4.08141582       4.07979754       0.31419138      -0.04770168      -0.04976602
F        4.07940357       4.07828227       6.11703210      -0.02740462      -0.02761005       0.31251579
64
Lattice="28.160000039244697 0.0 0.0 0.0 28.160000039244697 0.0 0.0 0.0 28.160000039244697" Properties=species:S:1:pos:R:3:REF_forces:R:3 config_type=LIF64_ISOLATED REF_energy=-32503.616673749955 pbc="T T T"
Li      -0.00047774       0.00222891       0.00487093       0.86480675       0.88035446       0.87925686
Li      -0.00220946       2.03766716       2.04410230       0.34795048       0.02961397       0.01915189
Li       2.04215554      -0.00017169       2.03511373       0.01502810       0.35848763       0.01765011
Li       2.02903091       2.03204956       0.00343337       0.03942015       0.05951847       0.35207787
F        2.04277601       2.03711505       2.04014059      -0.01957535      -0.02651887      -0.00200083
F       -0.00796248       2.03896720       0.00437039      -0.10069571      -0.17387162      -0.12678470
F        2.03404232      -0.00453346       0.00484609      -0.16267293      -0.10651952      -0.12320881
F       -0.00104573       0.01160746       2.03924419      -0.11209161      -0.15849180      -0.16289481
Li       4.07965799       0.00088125       0.00544899       0.23492092       0.48393047       0.47040826
Li       4.07755747       2.04304234       2.03250976       0.03905249      -0.02618052      -0.01839007
Li       6.11953730      -0.00961494       2.03836827      -0.47979125       0.50988935      -0.20849076
Li       6.11981389       2.03968754      -0.00481402      -0.47922303      -0.21730013       0.49086447
F        6.12423309       2.03762692       2.03645129       0.28439178       0.05420297       0.03338912
F        4.08270132       2.04596135      -0.00135956      -0.03486056      -0.01961443      -0.29983279
F        6.12266915      -0.00215740      -0.00315121      -0.40444224       0.38399477       0.39177544
F        4.08092334       0.00016351       2.04164749      -0.04867613      -0.30467392       0.02432392
Li      -0.00427649       4.07794565       0.00612907       0.49969596       0.22654298       0.48075027
Li      -0.00697367       6.12987169       2.04025768       0.51256407      -0.49955994      -0.21633159
Li       2.03902623       4.08821002       2.05515277      -0.02075883       0.00899526      -0.06914391
Li       2.03721176       6.10700454      -0.00209635      -0.20334881      -0.46458446       0.48600972
F        2.04206732       6.11727619       2.03902543       0.02083108       0.30262167       0.04770168
F        0.00005529       6.12024009      -0.00205771       0.37698594      -0.40101470       0.39640266
F        2.05026579       4.07460032      -0.00353018      -0.02980037      -0.03423115      -0.29799060
F        0.00855066       4.08053332       2.04246003      -0.32557211      -0.03091366       0.02422133
Li       4.07834004       4.07862219      -0.00470366      -0.02061022      -0.00123901       0.36063938
Li       4.07757386       6.11458603       2.03766885      -0.00784084      -0.33917453      -0.00197358
Li       6.12537060       4.07367061       2.04666719      -0.36349948       0.01109714      -0.01189675
Li       6.12859787       6.11449833      -0.01195984      -0.91353661      -0.88714423       0.90763593
F        6.11357440       6.12193281       2.04285376       0.12940568       0.11303109      -0.17157948
F        4.07251930       6.11958813       0.00270934       0.19757925       0.11596061      -0.13932705
F        6.12198740       4.08899846      -0.00772511       0.12638618       0.16003266      -0.10915927
F        4.07804592       4.07849239       2.03642217       0.03566969       0.00263281       0.01687621
Li       0.00506787      -0.00004157       4.08103949       0.44656642       0.49933060       0.21894923
Li       0.00200707       2.03788139       6.12572670       0.47138425      -0.20282327      -0.49220016
Li       2.03830934      -0.00282531       6.12079357      -0.23825642       0.50520814      -0.46588466
Li       2.04712546       2.02730240       4.07502010      -0.04302201       0.03414039       0.03946515
F        2.03526256       2.04968660       6.12281527       0.04279524      -0.04039177       0.27959384
F       -0.01360600       2.04052840       4.07912369      -0.24984129       0.02304505      -0.02643711
F        2.04065607       0.00115659       4.07989253       0.03266458      -0.30535630      -0.01299950
F       -0.00308682       0.00237119       6.11893121       0.41332052       0.37114260      -0.38412358
Li       4.06891306      -0.00128817       4.09941806       0.03296309       0.36103842      -0.08156645
Li       4.09163230       2.03884093       6.11681267      -0.04218872       0.07143862      -0.33975149
Li       6.11347716      -0.00614875       6.12480308      -0.84780147       0.89553529      -0.90317095
Li       6.11568979       2.04158630       4.08407379      -0.32878213      -0.00577624      -0.03467853
F        6.12860709       2.04470858       6.11869478       0.09317318      -0.20695632       0.11593850
F        4.08240728       2.04521776       4.08506557       0.00600378      -0.05865663      -0.00396387
F        6.12480783       0.00173371       4.07700925       0.08589721      -0.13062927       0.21154497
F        4.07825213      -0.00058379       6.11803838       0.17911462      -0.12086730       0.12359139
Li       0.00615757       4.07335576       4.08600836       0.34008624      -0.01069116      -0.02678241
Li       0.00591166       6.11965944       6.10560837       0.87744372      -0.87248329      -0.84900218
Li       2.03959093       4.07630857       6.11938059       0.03919133      -0.00376795      -0.34266814
Li       2.04081616       6.11145698       4.08605968       0.02439257      -0.33285424      -0.02088944
F        2.03896720       6.11963354       6.12631035      -0.18134916       0.11605471       0.09627727
F        0.00276699       6.12862319       4.07874378      -0.12114627       0.09725223       0.18281546
F        2.04083287       4.08041444       4.07601362      -0.03091032      -0.00327584       0.02546138
F        0.00085404       4.07979671       6.12352541      -0.12112004       0.18046110       0.08941474
Li       4.08668156       4.07334886       4.06454758      -0.00203529       0.04779141       0.07880945
Li       4.08995411       6.12688214       6.11684065       0.18567401      -0.52123974      -0.47617988
Li       6.12551588       4.08384161       6.10990892      -0.50132501       0.21541191      -0.46331870
Li       6.11462820       6.12647284       4.08434774      -0.47999976      -0.49372560       0.19574631
F        6.12072022       6.11349383       6.11747347      -0.37240809      -0.36275360      -0.38290642
F        4.07518373       6.11445522       4.09174067      -0.01267168       0.31725588      -0.06656843
F        6.12002749       4.08180868       4.07455376       0.30666370      -0.04726459      -0.02868554
F        4.07777399       4.07362880       6.11733245      -0.00216821      -0.02546678       0.30404015
64
Lattice="28.160000039244697 0.0 0.0 0.0 28.160000039244697 0.0 0.0 0.0 28.160000039244697" Properties=species:S:1:pos:R:3:REF_forces:R:3 config_type=LIF64_ISOLATED REF_energy=-32503.63436305426 pbc="T T T"
Li       0.00400400       0.00078682       0.00469545       0.85000850       0.87305433       0.88134717
Li      -0.00693970       2.04542544       2.03774527       0.34869430       0.01291851       0.02431749
Li       2.03676007      -0.00312670       2.03659417       0.03771474       0.35751986       0.01393332
Li       2.02599048       2.02806681       0.00625581       0.05714611       0.06128533       0.34599901
F        2.04026747       2.03507016       2.04279049      -0.02495847      -0.01907167      -0.01330957
F       -0.01360000       2.03573718       0.00421587      -0.08942194      -0.15917108      -0.12469233
F        2.03203172      -0.00416799       0.00971355      -0.16572662      -0.10915130      -0.13608206
F       -0.00214163       0.01024042       2.03873446      -0.10746543      -0.14398281      -0.14924431
Li       4.08006253      -0.00005852       0.00614929       0.24647649       0.49188572       0.48428605
Li       4.07524770       2.04182280       2.03406902       0.05823600      -0.03135203      -0.02853179
Li       6.12873277      -0.00553155       2.03852444      -0.50220278       0.51123995      -0.20967089
Li       6.12210553       2.04841879      -0.00768502      -0.49328440      -0.22135913       0.50470112
F        6.12907815       2.04461105       2.03886721       0.27194970       0.03643793       0.03489630
F        4.08156261       2.04778449      -0.00465748      -0.04463435      -0.02226781      -0.28544516
F        6.11908663       0.00199051       0.00226783      -0.38063845       0.37655606       0.37355044
F        4.08507806      -0.00187894       2.04067201      -0.06090506      -0.28786688       0.02985025
Li      -0.00531612       4.07521861      -0.00160512       0.49947973       0.23462011       0.49254932
Li      -0.00871505       6.12888106       2.03135257       0.51352695      -0.50417790      -0.20205554
Li       2.03777163       4.07768465       2.06155058      -0.01339313       0.04251525      -0.07685053
Li       2.04134414       6.10292652      -0.00758539      -0.21060446      -0.45812173       0.50482505
F        2.04200410       6.10981781       2.03965615       0.02378425       0.32198568       0.02659960
F       -0.00026538       6.11962423      -0.00624935       0.38520730      -0.40862285       0.38966894
F        2.04988989       4.06816807      -0.00353712      -0.03749851      -0.01335817      -0.30601655
F        0.00506771       4.08384345       2.04275262      -0.32307634      -0.05829205       0.00915853
Li       4.06881278       4.08272520      -0.00547115       0.00674555      -0.02550689       0.36495010
Li       4.08542062       6.11648431       2.03854102      -0.03697581      -0.35240954       0.00494809
Li       6.12491396       4.07853377       2.05163586      -0.35678453      -0.01536877      -0.01386982
Li       6.13049949       6.10978893      -0.00831604      -0.90952903      -0.88101112       0.89046404
F        6.11619933       6.12222249       2.04686379       0.11722713       0.11192732      -0.17855489
F        4.07957774       6.12378575      -0.00111496       0.17344739       0.09870157      -0.12385955
F        6.12028869       4.08815858      -0.00871583       0.13063441       0.17540940      -0.10555124
F        4.07614367       4.07874990       2.03935451       0.04840385       0.00373041       0.00705279
Li       0.01468369       0.00885566       4.08172502       0.42073866       0.47172261       0.20547845
Li      -0.00353206       2.03824532       6.11702871       0.48653474      -0.19635798      -0.45665646
Li       2.03728273      -0.00764434       6.11292921      -0.22278789       0.51361694      -0.43653372
Li       2.04099394       2.02274629       4.07712693      -0.01716366       0.05078957       0.03511098
F        2.03006343       2.05155008       6.12214996       0.06556030      -0.04323284       0.26369800
F       -0.00893536       2.04587697       4.07985001      -0.26467527       0.00231579      -0.02957180
F        2.04639473      -0.00004096       4.07387233       0.00454545      -0.30051542       0.01597426
F        0.00062327       0.00513580       6.11785221       0.40885785       0.36575999      -0.40442296
Li       4.07431985      -0.00155203       4.10367563       0.03895427       0.35340584      -0.09596437
Li       4.09029637       2.04863370       6.11550917      -0.04295336       0.03370845      -0.32959537
Li       6.11643263      -0.00395555       6.12127197      -0.85138353       0.88675934      -0.89424691
Li       6.11325336       2.04445840       4.08920552      -0.30758056      -0.00760532      -0.04973696
F        6.12934010       2.04269623       6.11553881       0.08330194      -0.19003281       0.12640854
F        4.08345702       2.04411085       4.08512376       0.00030776      -0.04852957       0.00764363
F        6.12475030      -0.00159899       4.08141502       0.09275075      -0.11976276       0.19931089
F        4.08193463      -0.00332435       6.12107967       0.15510874      -0.10609529       0.10750682
Li       0.00965457       4.06941250       4.08904107       0.33149850       0.02096940      -0.03203929
Li      -0.00174884       6.12457246       6.10985592       0.89028664      -0.87960396      -0.86438894
Li       2.03671807       4.07916989       6.12331113       0.03265687       0.00086980      -0.34904551
Li       2.03155389       6.10960517       4.07913059       0.03450780      -0.33352993      -0.00988358
F        2.03635936       6.11972720       6.12294253      -0.18060380       0.11639307       0.10278499
F       -0.00214584       6.13102063       4.07746671      -0.11459895       0.09037659       0.18564882
F        2.04065311       4.08009429       4.07260792      -0.03890439      -0.01506846       0.04880622
F        0.00128914       4.08223939       6.12722181      -0.13143608       0.17616402       0.07769822
Li       4.08810716       4.06762394       4.07033425      -0.01150594       0.06763775       0.05613695
Li       4.09226112       6.13016160       6.10933089       0.17160262      -0.52026041      -0.46731805
Li       6.11769921       4.08496985       6.11379447      -0.47020823       0.21758423      -0.47243506
Li       6.10972713       6.12706600       4.08319700      -0.45968111      -0.50214159       0.20624078
F        6.11803130       6.10878433       6.11532266      -0.37247263      -0.34339397      -0.36960431
F        4.07518194       6.11196495       4.09453191      -0.00360494       0.32572817      -0.08164924
F        6.12828996       4.08197716       4.07700465       0.26902892      -0.04564222      -0.02931289
F        4.07868311       4.07414506       6.11699361      -0.00826558      -0.04072473       0.30459422
64
Lattice="28.160000039244697 0.0 0.0 0.0 28.160000039244697 0.0 0.0 0.0 28.160000039244697" Properties=species:S:1:pos:R:3:REF_forces:R:3 config_type=LIF64_ISOLATED REF_energy=-32503.646430622724 pbc="T T T"
Li       0.00897376      -0.00138903      -0.00343986       0.85716234       0.87654949       0.90616808
Li      -0.00443663       2.04655936       2.03582583       0.33295246      -0.01635839       0.02547218
Li       2.05205845      -0.00425259       2.04326851      -0.01812653       0.34689812      -0.01830497
Li       2.02999341       2.03811853       0.01028450       0.02971038       0.02812761       0.33154067
F        2.03681647       2.03618004       2.04164567       0.01589687      -0.01618201       0.00868621
F       -0.01223931       2.03393612       0.00586344      -0.08962351      -0.14829840      -0.13368631
F        2.03265568      -0.00801371       0.00702602      -0.15496322      -0.09108879      -0.12386469
F       -0.00430754       0.00724581       2.04327990      -0.08637055      -0.13305433      -0.14617801
Li       4.08458435       0.00529940       0.00809960       0.22890634       0.46520872       0.46485211
Li       4.07326879       2.03832980       2.03738907       0.05955318      -0.02762985      -0.04727744
Li       6.12909648      -0.00040411       2.03422186      -0.49613806       0.49337773      -0.20834806
Li       6.11822227       2.04990912      -0.00727878      -0.47723557      -0.22738142       0.50448695
F        6.13254373       2.03980983       2.03442336       0.23856161       0.05011414       0.05661646
F        4.07999692       2.04854654      -0.00476976      -0.03396530      -0.00886851      -0.27611051
F        6.11960426       0.00049313       0.00117941      -0.37955962       0.39037676       0.36730086
F        4.08888215      -0.00573195       2.03239696      -0.07392102      -0.25861081       0.07057164
Li      -0.00766947       4.08102867      -0.00312038       0.49626122       0.21913538       0.49049269
Li      -0.01121166       6.12718930       2.03092845       0.50603321      -0.49770258      -0.20249829
Li       2.03621337       4.07954867       2.06097348      -0.01950799       0.03994466      -0.08183924
Li       2.04091924       6.10909992      -0.01223311      -0.20976602      -0.47179666       0.51020097
F        2.03960838       6.11397204       2.03670533       0.03811866       0.31379234       0.03482148
F       -0.00455691       6.12138658      -0.00944150       0.39573777      -0.40785872       0.39154070
F        2.04525185       4.06798977      -0.00423180      -0.01241971       0.00135343      -0.29993718
F        0.00257205       4.08500796       2.03930633      -0.30959013      -0.05164035       0.02512713
Li       4.07311008       4.08189792      -0.00734517      -0.00420350      -0.00850161       0.36730240
Li       4.08468892       6.12007000       2.04348027      -0.03560078      -0.35455898      -0.02654304
Li       6.12297531       4.08209833       2.05350642      -0.34085012      -0.02996698      -0.02615326
Li       6.13750921       6.10407123      -0.00135561      -0.91857597      -0.86868706       0.87802556
F        6.11800891       6.12128370       2.04984987       0.11852426       0.11773596      -0.16673115
F        4.08491845       6.12093355      -0.00194630       0.15655087       0.10705045      -0.11732175
F        6.11875368       4.09036761      -0.00323873       0.14429365       0.16279017      -0.11647971
F        4.08093561       4.08331783       2.03773628       0.03031048      -0.02167209       0.03383238
Li       0.01158452       0.00536932       4.09239493       0.40802302       0.48210395       0.17037569
Li       0.00079071       2.04251156       6.11821713       0.46424996      -0.18601546      -0.45172508
Li       2.03359354      -0.00805784       6.11443642      -0.22195305       0.51649349      -0.42092378
Li       2.04181337       2.01807979       4.08419191      -0.04464026       0.06306042       0.02312167
F        2.02418372       2.05284392       6.12880840       0.10067669      -0.05051061       0.23936353
F       -0.01395148       2.04589820       4.08744746      -0.23368165       0.01132288      -0.04964672
F        2.04929606       0.00026350       4.07397327       0.01671526      -0.29740336       0.03424349
F       -0.00124458       0.00653633       6.11875269       0.42259449       0.34672097      -0.40267409
Li       4.07201934      -0.00607972       4.11949675       0.05329665       0.34013766      -0.11520111
Li       4.10028591       2.05612566       6.11163708      -0.06963550       0.00931793      -0.29852333
Li       6.12428784      -0.00924724       6.12532267      -0.86117969       0.88833311      -0.90179027
Li       6.09961625       2.04165487       4.08978284      -0.25553397      -0.02065341      -0.05686072
F        6.12964843       2.04390468       6.11557662       0.07232256      -0.18541742       0.12532919
F        4.07938304       2.04213698       4.08979471       0.02016490      -0.03941424      -0.01428068
F        6.12329555      -0.00117544       4.08471398       0.08457207      -0.11454239       0.20216661
F        4.08296089      -0.00852164       6.12214646       0.15516916      -0.09155133       0.10688873
Li       0.01016031       4.07044493       4.08842692       0.31685761       0.01263543      -0.01929613
Li       0.00300362       6.12688958       6.10263742       0.87608206      -0.88724785      -0.84727285
Li       2.04627829       4.07939552       6.11755811      -0.00503885       0.00357898      -0.32824580
Li       2.03754375       6.11307509       4.07460022       0.00567365      -0.33708114      -0.00156220
F        2.03634000       6.12106391       6.12380121      -0.16296115       0.11651725       0.07744831
F       -0.00529502       6.13179142       4.07593923      -0.09308628       0.08899642       0.17947791
F        2.04271846       4.08008438       4.07177417      -0.03113272      -0.00811826       0.04126723
F       -0.00129895       4.08402412       6.12817815      -0.11178591       0.18534697       0.06355330
Li       4.09576894       4.06769546       4.06566715      -0.04118830       0.07015281       0.05846046
Li       4.09249387       6.13088273       6.10089908       0.16465550      -0.51161430      -0.43744286
Li       6.11892825       4.08273703       6.10939804      -0.45916663       0.22362864      -0.45812225
Li       6.10879504       6.12735934       4.08139276      -0.44300467      -0.49354228       0.20704425
F        6.11456841       6.10633899       6.11258345      -0.36912351      -0.34516134      -0.38191346
F        4.07343983       6.11687690       4.09216433       0.00817508       0.30938547      -0.08382388
F        6.13336815       4.07682218       4.07352506       0.23194513      -0.03336392      -0.01727576
F        4.07660738       4.07315135       6.11530506       0.01378240      -0.03869202       0.28207573
64
Lattice="28.160000039244697 0.0 0.0 0.0 28.160000039244697 0.0 0.0 0.0 28.160000039244697" Properties=species:S:1:pos:R:3:REF_forces:R:3 config_type=LIF64_ISOLATED REF_energy=-32503.65859588005 pbc="T T T"
Li       0.00568740      -0.00778903      -0.00506310       0.86111156       0.90377207       0.91714284
Li       0.00216009       2.04041600       2.05221306       0.32125317      -0.00538029      -0.04110628
Li       2.06096194      -0.00514115       2.04545407      -0.03675880       0.34423883      -0.02303297
Li       2.02667943       2.03700753       0.01243437       0.00936576       0.02920799       0.33170445
F        2.04298414       2.03204900       2.04084856       0.00918295       0.00566903       0.02767973
F       -0.01468934       2.03067611       0.01070650      -0.08176982      -0.13789160      -0.14585611
F        2.02851521      -0.00381426       0.00570007      -0.12969801      -0.10427186      -0.13143865
F       -0.00264025       0.00935723       2.04168892      -0.09488810      -0.14084914      -0.11874589
Li       4.07819251       0.01133474       0.00234115       0.23973403       0.45111702       0.47094717
Li       4.07215258       2.03735287       2.03704470       0.06255623      -0.02931418      -0.04495445
Li       6.13429562       0.00476264       2.03061769      -0.51773019       0.47487453      -0.20993469
Li       6.11727142       2.04644748      -0.00242099      -0.47702063      -0.21861833       0.48191472
F        6.13340130       2.04207076       2.03577375       0.24154434       0.02469622       0.04893221
F        4.08383303       2.05253204      -0.00818657      -0.05328611      -0.02866626      -0.26469970
F        6.11738012      -0.00358393      -0.00119963      -0.37202963       0.40889745       0.37607937
F        4.09013664      -0.00631537       2.02924096      -0.07731461      -0.24429208       0.07375518
Li      -0.00283528       4.08852093      -0.00711884       0.48435547       0.17707985       0.50683334
Li      -0.01191807       6.13355528       2.02305463       0.50607358      -0.51700976      -0.17618099
Li       2.03645350       4.08679229       2.06469980      -0.03377118       0.01230967      -0.09481894
Li       2.03730612       6.10602405      -0.01175362      -0.19635001      -0.47082298       0.50298234
F        2.03610189       6.10963247       2.03781760       0.05821415       0.32693017       0.03395964
F       -0.00142082       6.11937897      -0.01111708       0.38765679      -0.38925911       0.38888835
F        2.03995765       4.06825052      -0.00355823       0.00905594       0.00509053      -0.30071340
F        0.00485980       4.08347870       2.03968224      -0.31127086      -0.04113354       0.03998811
Li       4.07423750       4.07838681      -0.00525686      -0.00386874      -0.00906982       0.35624023
Li       4.08048151       6.11365778       2.04536889      -0.00847050      -0.34107509      -0.03308444
Li       6.12050066       4.07627420       2.04962699      -0.32585313      -0.01194715      -0.01223871
Li       6.13122157       6.10801491      -0.00389729      -0.91225131      -0.88152946       0.89149711
F        6.12095157       6.11623783       2.05193510       0.10262918       0.12621365      -0.18285197
F        4.08325865       6.11976968       0.00301291       0.15330305       0.11178000      -0.12331114
F        6.11259943       4.08529777      -0.00461651       0.15462872       0.17802293      -0.11684250
F        4.08258785       4.08162556       2.03819595       0.00881708      -0.01418709       0.03955591
Li       0.01011459       0.01372574       4.08980669       0.41603817       0.46121683       0.17777019
Li       0.00711411       2.04951902       6.12574267       0.44658828      -0.20179535      -0.46144874
Li       2.02960738      -0.00868807       6.11812813      -0.22863741       0.51047788      -0.44319828
Li       2.04875382       2.02580909       4.08347253      -0.04633848       0.04046145       0.02310650
F        2.02618425       2.05264910       6.12504604       0.09384707      -0.04779012       0.26469044
F       -0.01318064       2.05014429       4.09036213      -0.23530093       0.00932051      -0.05460946
F        2.04471596       0.00035352       4.07330658       0.03575222      -0.28611082       0.04286517
F       -0.00314178       0.00918652       6.11947328       0.43029263       0.35633279      -0.39154379
Li       4.07227196       0.00289836       4.12465265       0.04562371       0.31832700      -0.13291806
Li       4.09709187       2.04970984       6.11876041      -0.06286193       0.04020228      -0.32095518
Li       6.12173326      -0.00670330       6.12116629      -0.85608299       0.87365391      -0.89329200
Li       6.10149895       2.03578466       4.09617593      -0.26810795       0.00850470      -0.07296405
F        6.12477395       2.04633891       6.11374851       0.09104559      -0.20022903       0.14278364
F        4.08014161       2.03953217       4.09201884       0.01534332      -0.03538044      -0.02223644
F        6.11946955      -0.00021722       4.08621814       0.10334652      -0.10870830       0.20445335
F        4.08389557      -0.00868950       6.12066615       0.14624023      -0.08609365       0.12517236
Li       0.00410438       4.06300208       4.08428791       0.32750815       0.04472254      -0.02213360
Li       0.00960678       6.12689364       6.09513127       0.86613652      -0.87258562      -0.83446053
Li       2.03838064       4.07572638       6.11452258       0.02010577       0.02494176      -0.32501007
Li       2.04326671       6.11551376       4.07245235      -0.01933881      -0.33988878       0.01082306
F        2.03445861       6.12323930       6.12501731      -0.15341618       0.10703297       0.06301902
F       -0.00267567       6.13565261       4.07454089      -0.09483051       0.08008755       0.17613214
F        2.04334011       4.07775689       4.07267512      -0.03076094       0.00106521       0.03676189
F       -0.00027006       4.08805084       6.13303768      -0.10544043       0.16240245       0.05009615
Li       4.09999851       4.07183729       4.06379860      -0.03015981       0.04918238       0.07838754
Li       4.08817827       6.12323663       6.09715657       0.17708550      -0.50140137      -0.42474830
Li       6.12557225       4.07969179       6.11271247      -0.47689156       0.23889688      -0.47951048
Li       6.10943565       6.12586502       4.08227037      -0.42933489      -0.49538627       0.20506810
F        6.11920806       6.10582971       6.10601763      -0.36655266      -0.34949005      -0.36455877
F        4.07594981       6.11754430       4.09508404      -0.02106762       0.30546891      -0.11059112
F        6.13341468       4.07759026       4.07258929       0.23285813      -0.05265336      -0.01317330
F        4.07778572       4.07590718       6.11150368       0.00016044      -0.04936672       0.29793249
64
Lattice="28.160000039244697 0.0 0.0 0.0 28.160000039244697 0.0 0.0 0.0 28.160000039244697" Properties=species:S:1:pos:R:3:REF_forces:R:3 config_type=LIF64_ISOLATED REF_energy=-32503.708231076904 pbc="T T T"
Li       0.01214981      -0.01005697      -0.01145826       0.84695455       0.89609322       0.92742211
Li      -0.00196139       2.03128547       2.04994725       0.31660204       0.01940592      -0.03665570
Li       2.06391781       0.00074219       2.04471432      -0.03802662       0.32215023      -0.01281361
Li       2.01958615       2.03808067       0.01710410       0.03160606       0.03476980       0.32473290
F        2.03972805       2.03416877       2.04075699       0.02395600      -0.01212661       0.03088743
F       -0.01928228       2.02845660       0.01474678      -0.05902122      -0.14363545      -0.17077370
F        2.03714169      -0.00688878       0.00749925      -0.16187923      -0.08558251      -0.13548094
F       -0.00597614       0.01224416       2.03944453      -0.07922083      -0.14313331      -0.11538571
Li       4.07833054       0.01298305       0.00400759       0.23951111       0.43062841       0.46609627
Li       4.07639712       2.03185084       2.03671610       0.04307549      -0.01005121      -0.04744405
Li       6.13748476       0.01488169       2.03337623      -0.51685550       0.43627250      -0.21175503
Li       6.10926655       2.04292608      -0.00300061      -0.45913398      -0.21801798       0.46895662
F        6.12799907       2.04002573       2.03281181       0.25605873       0.02902570       0.05611304
F        4.08260079       2.05416823      -0.00678304      -0.03782864      -0.03947672      -0.26711396
F        6.11525497      -0.00901884       0.00059367      -0.37469226       0.43299640       0.37580735
F        4.08857630      -0.00589263       2.02959259      -0.06913259      -0.22002961       0.08307491
Li      -0.00203435       4.08099397      -0.01094519       0.47799482       0.20072628       0.52498816
Li      -0.01438650       6.12779421       2.02078628       0.50125147      -0.50736144      -0.18343998
Li       2.04365496       4.07909839       2.06401051      -0.04939089       0.03975003      -0.09063319
Li       2.03895399       6.10590619      -0.00327799      -0.19599854      -0.46625902       0.49512248
F        2.03513931       6.11508562       2.03656260       0.05351186       0.30576562       0.03480117
F       -0.00506019       6.11854834      -0.00626361       0.39072052      -0.40153689       0.38025922
F        2.04302951       4.06772077      -0.00147491      -0.00870987      -0.00708262      -0.30398924
F        0.00256267       4.07973521       2.04037013      -0.30220515      -0.04047199       0.04232062
Li       4.08239365       4.07259996      -0.00544124      -0.02535262       0.01704924       0.35880927
Li       4.08224749       6.11740542       2.04572821      -0.01247525      -0.34444169      -0.02333636
Li       6.12958147       4.06921572       2.04644411      -0.34779904       0.02045004      -0.01374512
Li       6.12810533       6.10577951       0.00344464      -0.90442410      -0.86074003       0.88042774
F        6.12387763       6.11928134       2.04979435       0.10359103       0.11239397      -0.17562640
F        4.08691555       6.12125739       0.00269592       0.14676474       0.10342802      -0.11431150
F        6.11346041       4.08803749      -0.00370827       0.15595386       0.14692492      -0.11131257
F        4.08293150       4.08112611       2.03801747       0.01808514      -0.02759077       0.03648344
Li       0.01310249       0.01967390       4.08936965       0.41202545       0.43770280       0.17436502
Li       0.00992806       2.04335258       6.12310512       0.43207311      -0.18591570      -0.44417350
Li       2.02453077      -0.00320894       6.11596078      -0.20555430       0.48387107      -0.43378598
Li       2.04233129       2.02984801       4.08771589      -0.03370176       0.03756639       0.00913256
F        2.02668022       2.05068550       6.12317694       0.08503178      -0.03431806       0.25801894
F       -0.00996196       2.04948095       4.09115096      -0.23794351       0.00269734      -0.04752761
F        2.04713530      -0.00183819       4.07404650       0.02032997      -0.25920705       0.03242495
F       -0.00068670       0.01116493       6.12267049       0.42481232       0.36339792      -0.40062467
Li       4.07907269       0.00943281       4.11986220       0.03308264       0.28402308      -0.10828561
Li       4.09644907       2.04350478       6.10782841      -0.05003367       0.04643027      -0.27892921
Li       6.12737106      -0.00810697       6.13320506      -0.87124839       0.87995054      -0.90373530
Li       6.10152816       2.04126177       4.09882919      -0.25685706      -0.01184687      -0.05344526
F        6.12704809       2.04292759       6.11934504       0.08333974      -0.18177776       0.11248036
F        4.07892954       2.04336981       4.09428805       0.02840966      -0.05289479      -0.03736353
F        6.11965087       0.00018930       4.08613315       0.10339820      -0.08630191       0.19487239
F        4.08447523      -0.01131526       6.12328872       0.15072912      -0.06666562       0.10993600
Li       0.00095964       4.06304901       4.08210614       0.32715976       0.04818119      -0.02700867
Li       0.01184448       6.11380941       6.09087891       0.85126732      -0.84534118      -0.81436530
Li       2.03931202       4.07511209       6.11344549       0.02620648       0.04238232      -0.32577163
Li       2.02836378       6.11614943       4.06945399       0.02350914      -0.33643836       0.01491240
F        2.03498495       6.12171589       6.12475184      -0.16090838       0.10044657       0.06156147
F       -0.00784741       6.13578839       4.07566215      -0.08512074       0.06654735       0.16364352
F        2.04484382       4.08348788       4.07337711      -0.05127191      -0.03147390       0.02922419
F       -0.00458998       4.09282795       6.13240703      -0.09034651       0.13336878       0.04179174
Li       4.10668440       4.06455953       4.05988850      -0.06132415       0.09360821       0.07751156
Li       4.09192349       6.11845789       6.09583734       0.14394552      -0.48591767      -0.43830675
Li       6.12462299       4.09582249       6.10825899      -0.47661259       0.19950295      -0.45818112
Li       6.10733353       6.12637571       4.08371252      -0.43580610      -0.47931791       0.17801316
F        6.11823901       6.10588907       6.10311496      -0.35318499      -0.35603480      -0.36172953
F        4.07652312       6.11996929       4.09208732      -0.00519851       0.29753526      -0.10584640
F        6.13375209       4.07707119       4.06546370       0.24380846      -0.06262796       0.01149437
F        4.07669897       4.07858604       6.10744356       0.02249278      -0.06142494       0.29721156
64
Lattice="28.160000039244697 0.0 0.0 0.0 28.160000039244697 0.0 0.0 0.0 28.160000039244697" Properties=species:S:1:pos:R:3:REF_forces:R:3 config_type=LIF64_ISOLATED REF_energy=-32503.71305796823 pbc="T T T"
Li       0.00576715      -0.00669807      -0.01040294       0.85381091       0.90131050       0.93059871
Li       0.00552216       2.02809055       2.06320990       0.28341424       0.01526695      -0.07462627
Li       2.06735250       0.00971699       2.04843427      -0.03363414       0.29924067      -0.02231409
Li       2.01790206       2.03917448       0.01092341       0.03131886       0.01207724       0.32847746
F        2.03923149       2.03417367       2.04200538       0.02630598       0.00477325       0.03641325
F       -0.02197575       2.02721657       0.01608144      -0.03996317      -0.13499706      -0.16950666
F        2.03900824      -0.00068661       0.00921937      -0.16814860      -0.08881979      -0.13809832
F       -0.00815559       0.01333995       2.03905488      -0.06604701      -0.14423683      -0.10003365
Li       4.07778987       0.01553041       0.00502044       0.24329218       0.42437549       0.46080802
Li       4.08119665       2.03447725       2.03764637       0.03802482      -0.01774164      -0.05552811
Li       6.13350589       0.01030134       2.04153074      -0.50877169       0.43637894      -0.23620339
Li       6.11065774       2.04204300      -0.00426312      -0.46104431      -0.22066210       0.47098162
F        6.12784790       2.03688038       2.03413196       0.24659450       0.04459810       0.06412306
F        4.08289636       2.05510353      -0.01107154      -0.03914196      -0.02784993      -0.25461352
F        6.11441667      -0.01159977      -0.00009976      -0.37434594       0.44020834       0.37759452
F        4.09101419      -0.00609638       2.02750245      -0.07387139      -0.21243354       0.10179666
Li       0.00788168       4.08371687      -0.00464678       0.44274036       0.18797412       0.49927738
Li      -0.01684218       6.12464920       2.02317161       0.50680249      -0.48668797      -0.20667504
Li       2.04085478       4.07078849       2.06149206      -0.03095942       0.05523681      -0.08473070
Li       2.04489309       6.09690296      -0.00457908      -0.20952974      -0.43612852       0.48755855
F        2.03089049       6.11844750       2.03480158       0.05881064       0.27758015       0.03321582
F        0.00089589       6.11082700      -0.01185460       0.38275576      -0.39890151       0.39117689
F        2.04495531       4.06731548      -0.00287880      -0.00786398      -0.01400660      -0.29671019
F        0.00230946       4.07726506       2.03918939      -0.28598406      -0.02000498       0.06543278
Li       4.07529212       4.07451674      -0.01093417       0.01008361       0.00631643       0.36525194
Li       4.07513844       6.11178981       2.04376308       0.00188050      -0.33306996      -0.01757503
Li       6.13048752       4.07465238       2.04796263      -0.34978136       0.01030832      -0.02490139
Li       6.13245998       6.10226160       0.01302487      -0.90436831      -0.85746856       0.86432724
F        6.12322901       6.11567534       2.04810926       0.10895872       0.12041736      -0.16145217
F        4.09024042       6.11930808       0.00220238       0.12492887       0.09751243      -0.11229139
F        6.11612184       4.08802606      -0.00124198       0.15369001       0.14111217      -0.10835760
F        4.07919001       4.08466980       2.03627241       0.01692943      -0.04593019       0.04698820
Li       0.01444790       0.02158989       4.08344273       0.41013466       0.42734974       0.20183211
Li       0.00771625       2.04901630       6.13086177       0.43306068      -0.20515012      -0.46277106
Li       2.02837960       0.00658635       6.11972744      -0.23122188       0.45957158      -0.44345282
Li       2.04344093       2.03868511       4.08702069      -0.03022486       0.01088477       0.02792269
F        2.02851359       2.05133449       6.12273264       0.08371563      -0.02930723       0.27247291
F       -0.01378764       2.04707983       4.08853210      -0.21795679       0.01991011      -0.04211981
F        2.05237613      -0.00031123       4.08024436       0.00426675      -0.25054526       0.00763026
F       -0.00278392       0.00829514       6.12960863       0.43853095       0.39228529      -0.41117210
Li       4.08686279       0.00432153       4.12675393       0.00006865       0.29550717      -0.12884312
Li       4.09175111       2.03581419       6.11111195      -0.03218276       0.07045440      -0.28936943
Li       6.12087280      -0.01314686       6.12898135      -0.85016226       0.88837502      -0.89252709
Li       6.10013338       2.04668135       4.09056367      -0.25323206      -0.01967511      -0.03199661
F        6.12222451       2.04361113       6.11743252       0.08437538      -0.19182229       0.10716487
F        4.07546423       2.04410932       4.09456141       0.04742297      -0.05105491      -0.04346193
F        6.12242734      -0.00453081       4.08437282       0.08119518      -0.08396632       0.20803104
F        4.08313645      -0.01174771       6.12509399       0.16792003      -0.06838492       0.11260481
Li       0.00015377       4.07174999       4.07591456       0.32555900       0.01545464      -0.00201369
Li       0.01163424       6.11969133       6.09108138       0.86360244      -0.84701651      -0.81409919
Li       2.04234745       4.07934006       6.12194810       0.02106608       0.03803793      -0.34505413
Li       2.01984555       6.10870381       4.05581085       0.05200339      -0.30650121       0.04650123
F        2.03475164       6.12462453       6.12211861      -0.17569119       0.09179970       0.08011660
F       -0.00684740       6.14436355       4.07195028      -0.09859564       0.03423270       0.16610201
F        2.04374232       4.08689326       4.07629541      -0.06794166      -0.04162565       0.00056513
F       -0.00157351       4.08735863       6.13240057      -0.09888720       0.16381090       0.04050362
Li       4.10528165       4.06672531       4.06711253      -0.05921713       0.09598288       0.06781542
Li       4.08941779       6.12024910       6.10004160       0.14447697      -0.48533172      -0.45651145
Li       6.12629401       4.09456783       6.10330693      -0.47762535       0.19679069      -0.44739432
Li       6.10473888       6.12933161       4.08427950      -0.43533790      -0.48217003       0.17925911
F        6.12161962       6.10482901       6.10247376      -0.36285388      -0.35275844      -0.36717487
F        4.07335868       6.11855805       4.09235904       0.00872324       0.29579693      -0.11263900
F        6.13554809       4.07581221       4.06495543       0.23400433      -0.05769196       0.00486607
F        4.07663176       4.08015030       6.10638876       0.01411793      -0.05899088       0.30680768
64
Lattice="28.160000039244697 0.0 0.0 0.0 28.160000039244697 0.0 0.0 0.0 28.160000039244697" Properties=species:S:1:pos:R:3:REF_forces:R:3 config_type=LIF64_ISOLATED REF_energy=-32503.710252474553 pbc="T T T"
Li       0.01146382      -0.00057089      -0.01577152       0.84198486       0.89406230       0.93326802
Li       0.00453120       2.02919848       2.06405339       0.28685309       0.01487357      -0.09329454
Li       2.06535240       0.00474168       2.04683207      -0.01959386       0.31218180      -0.02980191
Li       2.01805787       2.04068584       0.00947628       0.01349212       0.01594392       0.33143242
F        2.03813287       2.03567370       2.04025319       0.03664542       0.00639870       0.04615336
F       -0.02246776       2.02659668       0.01611949      -0.03955719      -0.13338163      -0.17320879
F        2.03769976       0.00137800       0.01028067      -0.15094741      -0.09299654      -0.15275310
F       -0.00772906       0.00885491       2.03407455      -0.05372166      -0.13594991      -0.07263855
Li       4.08946608       0.01611659      -0.00242464       0.20866045       0.41676194       0.48450974
Li       4.07895164       2.04255707       2.03322877       0.03704831      -0.05631024      -0.02642708
Li       6.13517526       0.00024871       2.04301594      -0.52284463       0.46760165      -0.22742770
Li       6.09844674       2.04022440      -0.01112123      -0.42045918      -0.21553815       0.48538982
F        6.13208608       2.04079640       2.03985433       0.22389886       0.03161788       0.03166751
F        4.08329990       2.05083772      -0.01169384      -0.02092544      -0.00444569      -0.24886916
F        6.11269639      -0.00966149      -0.00316029      -0.37672395       0.43407240       0.37655631
F        4.09032217      -0.00654924       2.03096217      -0.05325037      -0.21079755       0.08262111
Li       0.00991128       4.09170437      -0.00869290       0.44492143       0.17431694       0.50311064
Li      -0.01057759       6.12223723       2.02625780       0.49343841      -0.48354326      -0.20516221
Li       2.04372633       4.07307994       2.06859192      -0.04749136       0.06210037      -0.11346587
Li       2.03649222       6.10532033      -0.00729309      -0.19312404      -0.46257360       0.48916086
F        2.02851840       6.11761587       2.03634361       0.05421582       0.28552923       0.01922260
F       -0.00182895       6.11272338      -0.01484871       0.39246090      -0.39023304       0.39010654
F        2.04214811       4.06901390      -0.01130622       0.00896184      -0.02233954      -0.27801544
F        0.00485405       4.08128130       2.03586283      -0.28647206      -0.03022357       0.08335774
Li       4.08149284       4.06876979      -0.00124561      -0.02497055       0.04747722       0.33486973
Li       4.07951075       6.11561389       2.03503860      -0.00488124      -0.33049577       0.01924522
Li       6.13227557       4.07009578       2.05088955      -0.34271854       0.03279699      -0.01831011
Li       6.13337730       6.10178458       0.00697350      -0.90652521      -0.85270354       0.87598513
F        6.12372851       6.11957050       2.05404079       0.10800227       0.10204631      -0.18777975
F        4.08959500       6.11880296       0.00227542       0.13397581       0.10619659      -0.10895050
F        6.11669824       4.09217465      -0.00332839       0.13811786       0.11845869      -0.09887357
F        4.07377282       4.08924506       2.03711159       0.03933556      -0.08469162       0.02297255
Li       0.02160319       0.01579220       4.07939142       0.39532537       0.43408295       0.20221109
Li       0.01528327       2.04704251       6.13350742       0.40589748      -0.20356169      -0.46492281
Li       2.02302463       0.01064751       6.12082523      -0.22194740       0.44134683      -0.44506156
Li       2.04033735       2.03767514       4.08883964      -0.01656382       0.00592665       0.01397292
F        2.02802662       2.04778089       6.12100140       0.07956510      -0.02716833       0.28079352
F       -0.01092883       2.04738912       4.08559995      -0.21156297       0.01437478      -0.03868508
F        2.05559148      -0.00092813       4.08407426      -0.01603880      -0.25079877      -0.00354735
F       -0.00184950       0.00899288       6.12952782       0.44335666       0.39063619      -0.40934662
Li       4.09015487       0.00709482       4.12978002      -0.01255213       0.29369686      -0.14427437
Li       4.09150616       2.02593946       6.11022672      -0.02108742       0.10433177      -0.28355925
Li       6.11837791      -0.01868083       6.12506527      -0.84501362       0.89074892      -0.88269057
Li       6.10661140       2.04682514       4.09257057      -0.27217004      -0.01744725      -0.03765098
F        6.11910901       2.04345301       6.11430864       0.10421118      -0.19732317       0.10833395
F        4.07344494       2.04598452       4.09691059       0.04600963      -0.06149770      -0.05637375
F        6.12171305      -0.00404249       4.08640354       0.09257591      -0.09712214       0.19928775
F        4.08720013      -0.01394613       6.12531942       0.16038002      -0.06634655       0.11655248
Li       0.00552721       4.06660129       4.07634734       0.30958782       0.03224498      -0.00291023
Li       0.00637731       6.11874600       6.09248516       0.87911879      -0.84157194      -0.81561023
Li       2.03853037       4.07520090       6.12371278       0.04985420       0.06941901      -0.33925192
Li       2.01499622       6.10605979       4.05979697       0.08289031      -0.28900871       0.05669797
F        2.03435635       6.12797190       6.12233877      -0.19189557       0.07882745       0.08752961
F       -0.00602463       6.14260131       4.07619642      -0.10738135       0.03008191       0.15908032
F        2.04513897       4.08892758       4.07721440      -0.08538428      -0.06936116       0.00433077
F       -0.00164409       4.08535922       6.13446921      -0.09031643       0.15089110       0.03838117
Li       4.09980329       4.05733812       4.06558147      -0.04558592       0.14015006       0.09512387
Li       4.09778766       6.12348143       6.10354990       0.11928659      -0.50324974      -0.47404149
Li       6.13033827       4.09200769       6.09852781      -0.50702720       0.19570132      -0.43544177
Li       6.10620651       6.12458105       4.08956808      -0.45851794      -0.47101684       0.16110944
F        6.11949546       6.10076044       6.10098270      -0.33383769      -0.34245911      -0.35398023
F        4.07294958       6.11820147       4.09580600       0.00992703       0.29427690      -0.12219631
F        6.13083064       4.07507727       4.06309602       0.25674496      -0.06636789       0.01226082
F        4.07667743       4.08065635       6.11113859       0.00434491      -0.07865005       0.29922833
64
Lattice="28.160000039244697 0.0 0.0 0.0 28.160000039244697 0.0 0.0 0.0 28.160000039244697" Properties=species:S:1:pos:R:3:REF_forces:R:3 config_type=LIF64_ISOLATED REF_energy=-32503.723856125634 pbc="T T T"
Li       0.01977841       0.00119404      -0.01983041       0.81810471       0.89421245       0.94113380
Li       0.00381060       2.03915163       2.05962546       0.28512994      -0.01332526      -0.07775504
Li       2.06971335       0.00491297       2.03912256      -0.03900338       0.31153311       0.00115982
Li       2.02447231       2.03793201       0.01159744      -0.00015092       0.03091726       0.32530728
F        2.04323014       2.03882807       2.03611775       0.03362772      -0.00207488       0.04806035
F       -0.02652616       2.02444382       0.01526946      -0.01444934      -0.12876522      -0.17391250
F        2.04225242       0.00048222       0.00669961      -0.15781354      -0.08868069      -0.15900525
F       -0.00545023       0.01197154       2.03495953      -0.04173132      -0.14047402      -0.09426410
Li       4.08615847       0.01438214      -0.01148504       0.21962415       0.41366016       0.49288073
Li       4.08013315       2.03905490       2.02811701       0.03234653      -0.04513649      -0.01299667
Li       6.12501533       0.00227143       2.04465069      -0.50366188       0.45604994      -0.23518138
Li       6.09427236       2.03549692      -0.00463870      -0.40001866      -0.20148656       0.46851747
F        6.13055482       2.04340153       2.04148457       0.21858542       0.00973111       0.03373647
F        4.08413848       2.04843465      -0.01170808      -0.03037347       0.00321851      -0.25757157
F        6.11058570      -0.00790957      -0.00219160      -0.38017694       0.42925390       0.37423075
F        4.08667751      -0.00780124       2.02616520      -0.03928980      -0.20795160       0.09327397
Li       0.01227721       4.09137885      -0.00548271       0.43292132       0.17821704       0.49769255
Li      -0.01375325       6.12576595       2.02773204       0.50631835      -0.48575389      -0.21926702
Li       2.05442673       4.07189025       2.06691388      -0.06925909       0.07280310      -0.10616496
Li       2.04021523       6.10110731      -0.00836994      -0.19757694      -0.44534129       0.49886883
F        2.03244817       6.12097892       2.03488234       0.03690099       0.27145501       0.02788001
F       -0.00782625       6.11631923      -0.01003062       0.40062955      -0.40323588       0.39509371
F        2.03843935       4.07027966      -0.01077611       0.02036468      -0.02897453      -0.28408145
F        0.00259041       4.07705542       2.03895864      -0.27716184      -0.01130617       0.07178314
Li       4.08523393       4.07045566      -0.00452622      -0.01707907       0.05363655       0.34359143
Li       4.07772483       6.12095278       2.04345855      -0.00890887      -0.33960802      -0.00266829
Li       6.12875653       4.06396603       2.05807964      -0.33428326       0.05068236      -0.04713089
Li       6.13239552       6.10734194       0.01487798      -0.90688182      -0.87139314       0.87191559
F        6.11873360       6.11373756       2.05531614       0.11786503       0.13062181      -0.17833223
F        4.08711769       6.12054115       0.00196261       0.14412036       0.10084021      -0.11370678
F        6.11962530       4.08945951      -0.00138494       0.12041839       0.12389426      -0.10044580
F        4.07299930       4.08889222       2.03236361       0.03787364      -0.08955049       0.04105872
Li       0.02213614       0.02006977       4.07710692       0.40243627       0.43118557       0.19458983
Li       0.01001804       2.05233339       6.13810589       0.42158918      -0.22028903      -0.48789768
Li       2.01802513       0.01115780       6.12340990      -0.22482317       0.43660520      -0.45789702
Li       2.04525383       2.03973676       4.08786706      -0.03318651      -0.00426649       0.01513274
F        2.02946528       2.05052113       6.12516166       0.06817049      -0.03783301       0.27472186
F       -0.00968502       2.04544627       4.08338135      -0.21316296       0.03785307      -0.01985329
F        2.05424074       0.00029613       4.08472757       0.01089634      -0.24087586      -0.01225619
F        0.00160482       0.00449108       6.12607395       0.43193376       0.40493512      -0.38901125
Li       4.09140899       0.00617159       4.13178076      -0.03402212       0.29240076      -0.14324798
Li       4.09159049       2.01730366       6.11290518      -0.02923447       0.12812758      -0.28731332
Li       6.12522595      -0.01574296       6.12403140      -0.85086134       0.88452916      -0.87817520
Li       6.10553143       2.04521928       4.09379354      -0.27372530      -0.00788120      -0.04164647
F        6.12372536       2.04662575       6.11752992       0.09893502      -0.22012808       0.09871262
F        4.08013201       2.04593939       4.09637778       0.02745732      -0.06628021      -0.05191134
F        6.12156106      -0.00514197       4.08340249       0.08716245      -0.09137058       0.21517717
F        4.08262267      -0.01405911       6.12584247       0.18853591      -0.05791538       0.11513606
Li       0.00445807       4.07327413       4.07161935       0.31759732       0.00418601      -0.00880551
Li       0.01307958       6.11204053       6.09029131       0.86917505      -0.82302221      -0.80271255
Li       2.03105182       4.06721882       6.11985737       0.08072853       0.07531018      -0.33376673
Li       2.01410382       6.10843933       4.06507074       0.09195191      -0.29459032       0.03974360
F        2.03733975       6.12974480       6.11914835      -0.20663031       0.07503585       0.09609729
F       -0.00259435       6.14093777       4.07427335      -0.11909581       0.03095968       0.16626090
F        2.04361390       4.08876194       4.08044715      -0.07634634      -0.07332786      -0.01305426
F        0.00019751       4.08472167       6.13591916      -0.10007608       0.15615698       0.03953662
Li       4.10484559       4.06541320       4.06209904      -0.06312752       0.11529726       0.10977094
Li       4.09633362       6.11794943       6.10868046       0.11197437      -0.49986693      -0.47698952
Li       6.12821318       4.08873066       6.10222519      -0.51130860       0.19707609      -0.43474038
Li       6.10674298       6.12466342       4.09622820      -0.46084942      -0.47244432       0.14897435
F        6.11595292       6.10307258       6.10442012      -0.33402538      -0.34966052      -0.36492387
F        4.06658002       6.11511372       4.09213045       0.03982485       0.29966799      -0.10314237
F        6.12910119       4.07640446       4.06106455       0.26107753      -0.06337204       0.03509067
F        4.07685641       4.07948025       6.11290893       0.01401765      -0.07387268       0.29469933
64
Lattice="28.160000039244697 0.0 0.0 0.0 28.160000039244697 0.0 0.0 0.0 28.160000039244697" Properties=species:S:1:pos:R:3:REF_forces:R:3 config_type=LIF64_ISOLATED REF_energy=-32503.758768739306 pbc="T T T"
Li       0.02707848       0.00940518      -0.01968784       0.80094029       0.87354515       0.93217093
Li       0.00151246       2.03628445       2.07092829       0.28917891      -0.00523168      -0.10703605
Li       2.06878792       0.00592168       2.03969278      -0.04315134       0.30535372      -0.00275494
Li       2.02104492       2.03688053       0.01213453       0.00807044       0.04476008       0.32284777
F        2.04221228       2.03654334       2.03609387       0.03849044      -0.00127450       0.05593975
F       -0.02472275       2.02536440       0.01628718      -0.00851781      -0.13902006      -0.17293574
F        2.04572676      -0.00306751       0.00516310      -0.16524686      -0.06864074      -0.15015808
F       -0.00573462       0.00632524       2.03237364      -0.03287335      -0.12456866      -0.08028270
Li       4.08336166       0.02121734      -0.00937465       0.22269044       0.39924913       0.47009047
Li       4.07888431       2.03364069       2.02846947       0.03586586      -0.02797026      -0.01696825
Li       6.11608816       0.00060618       2.04895537      -0.47237361       0.45724293      -0.24464664
Li       6.09151804       2.02663917      -0.00132303      -0.38469051      -0.18970113       0.45506880
F        6.13402804       2.04031384       2.04022588       0.19785256       0.02613681       0.04568105
F        4.08593636       2.04981741      -0.01303876      -0.04214809      -0.00528902      -0.23762264
F        6.11020320      -0.00153762      -0.00449976      -0.38850294       0.41467883       0.37913127
F        4.08485537      -0.00654673       2.02388202      -0.04063809      -0.20896384       0.10573353
Li       0.01700873       4.09488586      -0.00289786       0.42523527       0.15767393       0.48749710
Li      -0.01531679       6.12553897       2.02568082       0.50207268      -0.47726745      -0.20928445
Li       2.05759607       4.07687393       2.06977338      -0.07605966       0.04282404      -0.12712485
Li       2.03779007       6.10161234      -0.00202338      -0.18303118      -0.44480907       0.47360337
F        2.03324365       6.12222446       2.03510979       0.02568069       0.25094481       0.02669422
F       -0.00655479       6.11184735      -0.01125903       0.40094425      -0.39672713       0.40868919
F        2.04200947       4.06769351      -0.01187876       0.01241791      -0.00934519      -0.26114001
F        0.00048928       4.07191746       2.04009569      -0.26165320       0.02068452       0.08295382
Li       4.09078921       4.07127737      -0.00095579      -0.02067707       0.04997273       0.31619092
Li       4.07357509       6.11723500       2.03826517       0.00543068      -0.31275285       0.00145807
Li       6.12544813       4.06881707       2.05724201      -0.31755669       0.03204674      -0.05057951
Li       6.13584978       6.11140261       0.01859817      -0.91433314      -0.87745400       0.85812419
F        6.11467440       6.11032279       2.05819723       0.13133992       0.13352716      -0.18280184
F        4.08882328       6.12551304       0.00312553       0.13187702       0.09552240      -0.09875196
F        6.11680017       4.09350521      -0.00703597       0.12337156       0.12488208      -0.07482296
F        4.07642802       4.09002444       2.03318816       0.02431621      -0.09134847       0.04161716
Li       0.01737014       0.01573936       4.07041755       0.40654772       0.42950844       0.21410913
Li       0.00391108       2.05562340       6.13917383       0.42288553      -0.22914160      -0.49382073
Li       2.01503994       0.01706096       6.12222020      -0.22350703       0.40993643      -0.45175645
Li       2.04558454       2.03969530       4.09461501      -0.03644770      -0.01242331      -0.00753899
F        2.03120815       2.05067467       6.12619213       0.05952464      -0.03137183       0.26752714
F       -0.01268542       2.04168928       4.08330863      -0.20281145       0.05228621      -0.01726753
F        2.05420311       0.00132926       4.08874717       0.01591461      -0.23669884      -0.02709506
F       -0.00350294       0.00282752       6.12463338       0.43882663       0.41899931      -0.38874746
Li       4.09317531       0.00488227       4.12323189      -0.03177626       0.28646332      -0.10334318
Li       4.07963458       2.01511103       6.11041992       0.01119793       0.11882508      -0.27515663
Li       6.12951506      -0.01501464       6.13304896      -0.87326876       0.88648757      -0.88134048
Li       6.10853828       2.04265084       4.09681196      -0.27748939      -0.00706899      -0.04588854
F        6.12267676       2.04442528       6.12147178       0.10153415      -0.22072689       0.07906708
F        4.08056294       2.04767894       4.09360249       0.02288770      -0.07681505      -0.04406125
F        6.11722174      -0.00967203       4.07851743       0.08853080      -0.07981090       0.22007692
F        4.08780566      -0.01652464       6.13185955       0.16968175      -0.04048793       0.08999992
Li       0.00942719       4.07872789       4.06699378       0.29563598      -0.00466398       0.00267060
Li       0.01966615       6.11604912       6.09562099       0.85182113      -0.81527933      -0.81009341
Li       2.03477743       4.07341071       6.12076952       0.07167979       0.06064384      -0.32798303
Li       2.01461533       6.10433077       4.07011575       0.09100831      -0.25848251       0.02896193
F        2.03263335       6.13700087       6.11710234      -0.18839578       0.04635725       0.09545452
F       -0.00347469       6.14760891       4.07495902      -0.10275131       0.00124030       0.15348637
F        2.04748991       4.08636935       4.07584590      -0.09219102      -0.05095309       0.00882840
F        0.00184644       4.08647327       6.13561440      -0.08555063       0.15393606       0.03375216
Li       4.10492129       4.06685297       4.05495453      -0.05154702       0.10352315       0.12344586
Li       4.10194011       6.11320847       6.10840123       0.11438427      -0.47996068      -0.47246797
Li       6.12595795       4.08820200       6.09527847      -0.49887835       0.18813405      -0.41418184
Li       6.10005032       6.12190649       4.09479115      -0.44396190      -0.45895786       0.15026967
F        6.11508780       6.10035286       6.10574411      -0.34239175      -0.34680634      -0.36758676
F        4.06831689       6.11953622       4.09014668       0.02531971       0.27202014      -0.08916714
F        6.13178257       4.07573452       4.06558800       0.24485567      -0.06546183       0.01814762
F        4.07564948       4.08006395       6.11224447      -0.00558932      -0.06193119       0.28511863
64
Lattice="28.160000039244697 0.0 0.0 0.0 28.160000039244697 0.0 0.0 0.0 28.160000039244697" Properties=species:S:1:pos:R:3:REF_forces:R:3 config_type=LIF64_ISOLATED REF_energy=-32503.74769805989 pbc="T T T"
Li       0.02845430       0.00577019      -0.01705391       0.80734748       0.88053367       0.92622860
Li       0.00102674       2.03865880       2.06329371       0.29812378      -0.00564023      -0.06979722
Li       2.06990934       0.00105876       2.04057064      -0.04029484       0.33748634       0.00317043
Li       2.02029704       2.04016833       0.00612420       0.02192071       0.03188271       0.34996905
F        2.04147378       2.03566723       2.03502694       0.04465826       0.01025433       0.05653753
F       -0.02733565       2.02479067       0.01373843      -0.00710884      -0.14259878      -0.17303550
F        2.04731896       0.00193037       0.00256600      -0.17033841      -0.08726864      -0.14949268
F        0.00352170       0.00611580       2.03913925      -0.05028692      -0.13795845      -0.11246879
Li       4.08563496       0.01769767      -0.00779877       0.21527230       0.41120656       0.47045814
Li       4.08502050       2.03302244       2.03172896      -0.00591585      -0.03097459      -0.02422493
Li       6.11548818       0.01188981       2.04506922      -0.46946852       0.41492103      -0.22400865
Li       6.09577103       2.02703494       0.00005517      -0.41021360      -0.19011740       0.44416810
F        6.13552995       2.03957330       2.04216092       0.21058003       0.03997423       0.03123633
F        4.08967284       2.05095142      -0.01281345      -0.03926897      -0.00450432      -0.23742904
F        6.10630420      -0.00721943      -0.00040270      -0.37296525       0.43149333       0.37315629
F        4.08643397      -0.00380450       2.02613635      -0.04775001      -0.21417855       0.09730983
Li       0.01852100       4.08802660      -0.00926207       0.41579032       0.18086245       0.50262856
Li      -0.00791869       6.12954976       2.01910764       0.47314623      -0.48796787      -0.20560032
Li       2.05375123       4.07781990       2.07466993      -0.07469029       0.02087607      -0.14393550
Li       2.04375461       6.10277186       0.00574529      -0.20255562      -0.44662376       0.45274864
F        2.03193977       6.11712744       2.02782628       0.03259593       0.26666479       0.06042864
F       -0.01321115       6.11439481      -0.01417861       0.42187278      -0.40970246       0.42138015
F        2.04020622       4.06781248      -0.00568106       0.01645532      -0.01349546      -0.28750358
F        0.00094480       4.06738640       2.04235960      -0.25533214       0.03700460       0.06418939
Li       4.09006684       4.07285925       0.00217077      -0.02869248       0.03187268       0.31626446
Li       4.07756999       6.11644918       2.03367876       0.00110249      -0.31199771       0.01479130
Li       6.12490059       4.06438469       2.06065309      -0.31881731       0.05226384      -0.05582173
Li       6.13114781       6.10847814       0.01876278      -0.90778145      -0.87052179       0.85782492
F        6.11124601       6.10728167       2.06073959       0.14041231       0.14376066      -0.19561261
F        4.08364281       6.12848155       0.00602402       0.14916564       0.09395788      -0.10322131
F        6.10853553       4.09436326      -0.00492692       0.14774896       0.12702792      -0.07860402
F        4.07583611       4.09117993       2.03452814       0.03179195      -0.09113507       0.04058666
Li       0.02380829       0.01378378       4.06437478       0.39719841       0.45562751       0.23256991
Li       0.00207997       2.06123588       6.14923713       0.41722242      -0.24110828      -0.52859593
Li       2.00967450       0.01132523       6.11894864      -0.21845609       0.42238314      -0.45121215
Li       2.04404166       2.05289653       4.09518586      -0.04384888      -0.04983595      -0.01400146
F        2.03021181       2.05247640       6.12515987       0.06722561      -0.03487959       0.27906137
F       -0.01538484       2.04565424       4.08683594      -0.19173051       0.04267363      -0.03712467
F        2.05436094       0.00337793       4.09149169       0.02626228      -0.24770445      -0.03313509
F       -0.00369225       0.00406296       6.12321040       0.44191170       0.40691847      -0.37422998
Li       4.09190536       0.00701570       4.12164247      -0.02260720       0.28581668      -0.09056814
Li       4.07583527       2.00930561       6.10778042       0.04026502       0.11831497      -0.27001931
Li       6.13467283      -0.02327793       6.12838342      -0.88580366       0.90694970      -0.88145053
Li       6.11075320       2.04749283       4.09086222      -0.28582105      -0.03191202       0.00338666
F        6.12046778       2.03755586       6.11983759       0.11302287      -0.19510765       0.07046211
F        4.08388035       2.04960437       4.09134917       0.01278944      -0.07138976      -0.05023627
F        6.11779433      -0.01136740       4.07879537       0.09405918      -0.07701277       0.20203394
F        4.09082064      -0.01764358       6.13335976       0.14781966      -0.04868127       0.07808492
Li       0.01118319       4.07849828       4.06468354       0.27341908      -0.01187721       0.01389244
Li       0.02246396       6.12170638       6.09247494       0.85288017      -0.83026243      -0.81300185
Li       2.03359594       4.06067424       6.12015669       0.07758150       0.09376530      -0.32504452
Li       2.02076627       6.10137159       4.06931089       0.07497491      -0.25918905       0.04783126
F        2.03612858       6.13384266       6.11568357      -0.19349814       0.06097268       0.09556379
F       -0.00330296       6.14852370       4.07521022      -0.08172637       0.00817174       0.14281938
F        2.04650376       4.08328686       4.08021678      -0.07753856      -0.02922059      -0.02051612
F       -0.00014767       4.08529592       6.13268515      -0.07927071       0.16062273       0.05454570
Li       4.11264881       4.07499698       4.04627002      -0.07102852       0.08058840       0.15675527
Li       4.10244362       6.11390076       6.10984948       0.09887254      -0.48813293      -0.47360543
Li       6.11780804       4.09663032       6.09139438      -0.49384875       0.15367226      -0.40134997
Li       6.10348873       6.12767960       4.09609771      -0.45247919      -0.46365732       0.14702931
F        6.11402110       6.10350767       6.09930943      -0.33124319      -0.33596682      -0.35751087
F        4.07021610       6.11810556       4.09131962       0.01129743       0.28039860      -0.11222248
F        6.12975318       4.07700257       4.06518767       0.26071655      -0.06645865       0.00610843
F        4.07860683       4.08132241       6.11292867      -0.00512215      -0.06183657       0.28135839
64
Lattice="28.160000039244697 0.0 0.0 0.0 28.160000039244697 0.0 0.0 0.0 28.160000039244697" Properties=species:S:1:pos:R:3:REF_forces:R:3 config_type=LIF64_ISOLATED REF_energy=-32503.758869013254 pbc="T T T"
Li       0.02976813       0.00281234      -0.01598069       0.81141573       0.87731799       0.92253444
Li      -0.00731945       2.03995513       2.05797353       0.30553190      -0.01452082      -0.04953899
Li       2.07249542       0.00531671       2.03839269      -0.04260215       0.31394455       0.01547753
Li       2.02180004       2.04721108       0.01035699       0.00092714       0.00526151       0.33275680
F        2.03623145       2.04294627       2.03302156       0.06140489       0.00043992       0.04807911
F       -0.02719820       2.02455327       0.01236105      -0.01033249      -0.12582722      -0.15871780
F        2.05083101       0.00004521      -0.00013806      -0.18084703      -0.05846046      -0.14116745
F        0.00183021       0.00732499       2.03916264      -0.05237183      -0.12821320      -0.12569301
Li       4.08909975       0.02701260      -0.01393505       0.21212938       0.36898107       0.48128609
Li       4.08070445       2.03038416       2.03297354       0.01148152      -0.04454153      -0.00237801
Li       6.12781140       0.01670483       2.05206690      -0.49771158       0.40213982      -0.23670836
Li       6.08730297       2.02330256       0.00261674      -0.36497761      -0.19740699       0.43217030
F        6.13565505       2.03898809       2.04317901       0.21229393       0.03725708       0.01814273
F        4.09515134       2.04840947      -0.01415406      -0.06442259       0.02429872      -0.23484611
F        6.10946686      -0.00672006      -0.00623142      -0.37752922       0.44864439       0.38650365
F        4.08387383      -0.00319459       2.02386631      -0.02961268      -0.19082265       0.09621094
Li       0.01230434       4.08925148      -0.00561654       0.40745634       0.18153300       0.49326717
Li       0.00094161       6.12948433       2.01691926       0.44131289      -0.47971694      -0.20358458
Li       2.05180672       4.08033205       2.06722984      -0.07960238       0.01342604      -0.12585010
Li       2.03865722       6.09350142       0.00069163      -0.18555806      -0.41721754       0.45023873
F        2.02853696       6.11917586       2.03053356       0.04410239       0.24691641       0.04659816
F       -0.02108930       6.11394542      -0.01076918       0.43893050      -0.41853086       0.41415124
F        2.03709967       4.07037496      -0.00485148       0.02947795      -0.02052306      -0.28648234
F        0.00211835       4.07599253       2.04621389      -0.25813490       0.00521034       0.04221623
Li       4.09735308       4.06247435       0.00362399      -0.02860249       0.07442058       0.30279471
Li       4.07496973       6.11516838       2.02738417       0.00934570      -0.29129288       0.01589687
Li       6.12310615       4.06195510       2.05950459      -0.30314900       0.05311616      -0.04424277
Li       6.14073356       6.11034309       0.02293306      -0.91961958      -0.86139798       0.84991543
F        6.11296765       6.11449784       2.06300258       0.12901436       0.11823809      -0.20125824
F        4.08313254       6.13522336       0.00481380       0.14170969       0.06179389      -0.08444634
F        6.11144986       4.09914877      -0.00635254       0.13245501       0.11589582      -0.06123622
F        4.07612699       4.08785395       2.03089347       0.02749615      -0.07747891       0.03591085
Li       0.01987892       0.01424172       4.06656265       0.41240032       0.45507986       0.23239584
Li       0.00987457       2.05899746       6.14972990       0.39094961      -0.24567585      -0.52010923
Li       2.01341277       0.00843381       6.12075455      -0.21900888       0.42584847      -0.46529537
Li       2.03530476       2.05837192       4.08945834      -0.02919153      -0.08341944       0.00336892
F        2.02791866       2.05021091       6.12333755       0.08102472      -0.01622160       0.28022633
F       -0.02067483       2.04622394       4.08949758      -0.18097352       0.05359465      -0.06117477
F        2.05147135       0.00520032       4.08956447       0.02992893      -0.23964121      -0.03635643
F        0.00001044       0.00513181       6.12580661       0.43554873       0.39737556      -0.37298479
Li       4.09851764       0.01185129       4.12504414      -0.04765360       0.27883537      -0.09336524
Li       4.07154448       2.02209782       6.11224306       0.05246413       0.09661434      -0.28272750
Li       6.13085281      -0.01617699       6.13097387      -0.87897070       0.89967836      -0.86885289
Li       6.11494606       2.04410669       4.09428110      -0.29797286      -0.02169240       0.00852629
F        6.12337568       2.03476055       6.12338781       0.10822956      -0.18546833       0.05988999
F        4.08695073       2.04419444       4.09051626      -0.00569011      -0.03702774      -0.05560628
F        6.11924477      -0.01072198       4.08162609       0.10519874      -0.07285401       0.18377063
F        4.09220727      -0.01772382       6.13300783       0.14054961      -0.04343930       0.08509400
Li       0.01027570       4.08377429       4.06510873       0.25338864      -0.03246223       0.01867778
Li       0.02353181       6.12041196       6.08662744       0.84730653      -0.83003540      -0.78893426
Li       2.02600521       4.05421570       6.11946099       0.09024598       0.10789300      -0.30856735
Li       2.01450629       6.08541338       4.06454099       0.09597825      -0.22031809       0.06841088
F        2.03529407       6.12988881       6.11424218      -0.19963716       0.06128739       0.09354727
F       -0.00391307       6.13955421       4.07855019      -0.08225139       0.01805223       0.14318139
F        2.04694187       4.08301246       4.08028461      -0.08293993      -0.04115076      -0.03225757
F       -0.00259189       4.07848346       6.13920926      -0.06044715       0.17794708       0.03559075
Li       4.10884686       4.07703540       4.04082323      -0.05089833       0.06676152       0.18112085
Li       4.09769087       6.11629721       6.11072090       0.10696406      -0.50226217      -0.47727568
Li       6.12367865       4.10252149       6.08245082      -0.49664560       0.14873163      -0.38322164
Li       6.10206669       6.13039166       4.09024490      -0.44501836      -0.46170174       0.16230063
F        6.12266711       6.10496938       6.09823899      -0.35246199      -0.34329395      -0.37209442
F        4.07097402       6.11126967       4.09380592       0.00829386       0.28108405      -0.13190942
F        6.13161735       4.07229855       4.06504116       0.25326060      -0.05241425      -0.00706745
F        4.07757755       4.07936053       6.11438877      -0.00338331      -0.06258965       0.27369856
64
Lattice="28.160000039244697 0.0 0.0 0.0 28.160000039244697 0.0 0.0 0.0 28.160000039244697" Properties=species:S:1:pos:R:3:REF_forces:R:3 config_type=LIF64_ISOLATED REF_energy=-32503.753958719033 pbc="T T T"
Li       0.04030109       0.00311669      -0.02795010       0.79906210       0.87947720       0.94262118
Li      -0.00991881       2.03821148       2.06113486       0.32145294      -0.00398958      -0.06327639
Li       2.07437578      -0.00510734       2.03409076      -0.03943944       0.35032412       0.02219376
Li       2.02062380       2.05241832       0.01468915      -0.00055613      -0.00789920       0.34373515
F        2.03688402       2.04134300       2.03761203       0.06769740       0.00662213       0.02588612
F       -0.02500411       2.02514191       0.01767844      -0.01689138      -0.12328414      -0.19935563
F        2.05481447      -0.00495207      -0.00033667      -0.19104659      -0.05681649      -0.15124823
F        0.00105575       0.01184969       2.03456285      -0.04761554      -0.14834134      -0.11377929
Li       4.09339876       0.02272398      -0.01625998       0.20276799       0.37760867       0.48944445
Li       4.08588624       2.03841047       2.03159028      -0.01144192      -0.08045213       0.02013611
Li       6.12919642       0.01901167       2.05228150      -0.50553262       0.40121499      -0.22468948
Li       6.08480068       2.01910576       0.00183878      -0.35495313      -0.18877297       0.42919734
F        6.13619047       2.03733640       2.04699940       0.20584098       0.04773639      -0.00018332
F        4.09677387       2.04710654      -0.01784100      -0.06994609       0.03118234      -0.21936498
F        6.10860427      -0.00758990      -0.00786834      -0.37369699       0.44725831       0.38557240
F        4.08385952      -0.00110482       2.02345846      -0.02640009      -0.20613383       0.09236045
Li      -0.00092504       4.09253369      -0.01912655       0.43760227       0.16604107       0.53355636
Li      -0.00002198       6.13130409       2.01185035       0.44479545      -0.49886909      -0.19519918
Li       2.05799613       4.08386231       2.06362541      -0.11463341      -0.00897315      -0.10768166
Li       2.04083425       6.09123342       0.00392968      -0.17876238      -0.41952845       0.44057704
F        2.03022398       6.11819090       2.03430864       0.03838169       0.26451098       0.01714900
F       -0.02137715       6.11217115      -0.01157272       0.43421767      -0.41364859       0.40741701
F        2.03579957       4.06649072      -0.00428338       0.03967855       0.00333678      -0.28813402
F        0.00141101       4.07613200       2.04650957      -0.26754334       0.02283422       0.03200098
Li       4.09484117       4.05356925       0.01114561      -0.01084440       0.09369074       0.27773596
Li       4.07492554       6.12304233       2.03242180       0.01611953      -0.30608006       0.00955808
Li       6.12901462       4.06635098       2.05615306      -0.30392522       0.04951276      -0.02968827
Li       6.13282213       6.11301945       0.02479126      -0.91355461      -0.86655870       0.84167685
F        6.11092214       6.11230277       2.06496201       0.12204307       0.13112678      -0.20828507
F        4.08903447       6.13662248       0.00148171       0.11677668       0.06214099      -0.06486790
F        6.11066295       4.09583224      -0.00477112       0.12975972       0.11466786      -0.05221216
F        4.07376281       4.08967040       2.03219197       0.03533776      -0.08550075       0.02748612
Li       0.01609107       0.02036137       4.05970949       0.41775516       0.44008776       0.24922011
Li       0.00385769       2.06050396       6.14685347       0.40746226      -0.25097772      -0.51472611
Li       2.02599979       0.00850295       6.11265288      -0.24924274       0.41933278      -0.44171269
Li       2.03173371       2.05024412       4.09634719      -0.02038448      -0.06475812      -0.02986362
F        2.03180078       2.04735699       6.12253889       0.07041326       0.00364762       0.27396878
F       -0.02356172       2.04627249       4.08879305      -0.18130160       0.05462257      -0.05311411
F        2.04935562       0.00330965       4.09193871       0.04432762      -0.25047147      -0.04743942
F        0.00365533       0.00643841       6.12255280       0.42000590       0.40184825      -0.37189542
Li       4.09465291       0.00925380       4.12639523      -0.02655230       0.29385832      -0.10259473
Li       4.06726933       2.02491162       6.11169714       0.06081585       0.08910261      -0.28272056
Li       6.13357025      -0.01373109       6.13482627      -0.88791145       0.89710134      -0.87717735
Li       6.11770009       2.04436452       4.09751125      -0.31076127      -0.02469133      -0.00369416
F        6.12362866       2.03449252       6.11988575       0.11751407      -0.17528444       0.07344973
F        4.08007693       2.04121623       4.09433127       0.01813168      -0.01025999      -0.05773335
F        6.11809753      -0.00762001       4.08066543       0.11240349      -0.08327726       0.18809085
F        4.09766333      -0.01989779       6.13711205       0.12854667      -0.04326190       0.07486538
Li       0.01272954       4.08834448       4.05906651       0.25009943      -0.04440732       0.02313941
Li       0.02375201       6.12140679       6.07970869       0.83509096      -0.84156295      -0.76653610
Li       2.03091215       4.05736295       6.11318186       0.06761924       0.09673236      -0.29158830
Li       2.00666531       6.08865076       4.06932866       0.10888082      -0.23168673       0.05401631
F        2.03141761       6.12640700       6.11477453      -0.17408322       0.08234472       0.08919594
F       -0.00217200       6.13740014       4.08014227      -0.09293947       0.04535297       0.12739482
F        2.04311832       4.08687153       4.07774617      -0.05856305      -0.04883013      -0.01099018
F       -0.00253861       4.08455761       6.13770091      -0.06104545       0.15413301       0.03157135
Li       4.10118376       4.08145325       4.03901947      -0.03138803       0.04881471       0.18336465
Li       4.09385520       6.11834766       6.11892107       0.11897986      -0.51203288      -0.48630899
Li       6.12722269       4.09539232       6.08179047      -0.50167339       0.16405798      -0.38905882
Li       6.08981003       6.13084370       4.09793511      -0.41314954      -0.46511025       0.15107905
F        6.12179169       6.10583149       6.09712727      -0.36441402      -0.34191970      -0.36054965
F        4.07053906       6.11390502       4.09208025      -0.00283593       0.27894567      -0.10990592
F        6.13719129       4.07387714       4.06376371       0.22207775      -0.06219036       0.00523862
F        4.07789881       4.07974279       6.11994888      -0.00862888      -0.05369775       0.25267516
64
Lattice="28.160000039244697 0.0 0.0 0.0 28.160000039244697 0.0 0.0 0.0 28.160000039244697" Properties=species:S:1:pos:R:3:REF_forces:R:3 config_type=LIF64_ISOLATED REF_energy=-32503.751780039584 pbc="T T T"
Li       0.04334249       0.01062644      -0.02821341       0.79945959       0.85323061       0.93700692
Li      -0.00593714       2.03939593       2.05203794       0.30778085      -0.01673608      -0.03963484
Li       2.07075304      -0.00359426       2.03336103      -0.03917847       0.33964170      -0.00107472
Li       2.01749110       2.05966144       0.01624721       0.03426663      -0.03011199       0.31925696
F        2.03251112       2.03969670       2.03328520       0.07629517       0.02895731       0.05284954
F       -0.02402990       2.02403475       0.01723896      -0.02045390      -0.10888622      -0.19357964
F        2.05812299      -0.00368075       0.00256194      -0.21207873      -0.06295063      -0.15166115
F       -0.00031081       0.00735666       2.03227913      -0.04292431      -0.12870017      -0.10873247
Li       4.10265586       0.01638914      -0.01005737       0.17646792       0.40234242       0.47268883
Li       4.07266837       2.03810383       2.03710097       0.03652535      -0.08276870      -0.01467997
Li       6.12774946       0.01143103       2.05205785      -0.50238199       0.43050834      -0.21794676
Li       6.08409728       2.02554415      -0.00067368      -0.36834755      -0.20062755       0.44304041
F        6.14073297       2.03823958       2.04181197       0.20158169       0.03924918       0.01316842
F        4.09183552       2.04615141      -0.01895369      -0.05061705       0.05372654      -0.21165681
F        6.10386968      -0.00816152      -0.00777060      -0.35966956       0.43069835       0.38271282
F        4.08336022       0.00257896       2.02097116      -0.03345108      -0.22445936       0.11882302
Li       0.00464006       4.09061646      -0.01675452       0.43604161       0.18148312       0.51525679
Li      -0.00782753       6.13110756       2.00838523       0.46369100      -0.49826539      -0.18115016
Li       2.05738723       4.07963806       2.06899067      -0.10508047       0.02621420      -0.12351040
Li       2.03381074       6.09319548       0.01466581      -0.16201215      -0.42005012       0.41945723
F        2.02929743       6.11536122       2.03316504       0.03226323       0.27364200       0.03151144
F       -0.01769572       6.11372633      -0.01542681       0.41533112      -0.41559234       0.42576671
F        2.03469115       4.07078949      -0.00640962       0.02910437      -0.02306460      -0.27068523
F        0.00596019       4.07730256       2.04809536      -0.28308411       0.00664527       0.01780643
Li       4.09783233       4.05513281       0.01599685      -0.02500166       0.09287005       0.27129792
Li       4.08215262       6.12335968       2.03303678      -0.00014681      -0.31498893       0.00100376
Li       6.13500250       4.05452105       2.06006959      -0.31627114       0.06631878      -0.04432993
Li       6.13077996       6.10991978       0.02207902      -0.91617019      -0.86477949       0.84930428
F        6.10651242       6.10793990       2.06781826       0.14140656       0.14942969      -0.20602610
F        4.08580818       6.13816537       0.00541343       0.13761984       0.06329336      -0.06978951
F        6.11218839       4.09846084      -0.00064128       0.13265555       0.10835220      -0.07460082
F        4.07793790       4.08878861       2.02915793       0.00253459      -0.10376587       0.04780118
Li       0.01539113       0.02241914       4.06141462       0.41283406       0.44093134       0.23877192
Li      -0.00149934       2.05631456       6.14625056       0.42624262      -0.24438181      -0.50552748
Li       2.03223078       0.00216431       6.12000600      -0.25658530       0.45207784      -0.44831940
Li       2.03302485       2.04970394       4.09638173      -0.02911749      -0.06367440      -0.01223151
F        2.03837653       2.04575268       6.12598550       0.05026610      -0.00219546       0.25221005
F       -0.02040902       2.04362405       4.08775474      -0.18506723       0.07078581      -0.05184038
F        2.04785610       0.01017138       4.08843488       0.05631950      -0.27265649      -0.02758794
F       -0.00054270       0.01177926       6.12436602       0.43122465       0.39090255      -0.37312029
Li       4.08336848       0.00652662       4.12256464       0.01980032       0.30550053      -0.09667014
Li       4.06618670       2.02519736       6.11008727       0.07513663       0.09027323      -0.27013861
Li       6.13005268      -0.01750283       6.13664873      -0.87721360       0.91197003      -0.88790682
Li       6.11545776       2.04736489       4.09430316      -0.29878378      -0.05441791       0.00798739
F        6.12792722       2.02901527       6.12000147       0.10301510      -0.15063631       0.06867417
F        4.08567025       2.04151357       4.08916842      -0.02516596      -0.00537849      -0.05169023
F        6.11518956      -0.00909336       4.08251412       0.10651181      -0.09617931       0.16505377
F        4.10155867      -0.01618308       6.13728083       0.09104379      -0.07007619       0.07395058
Li       0.01385262       4.08273795       4.05903559       0.25042185      -0.01860270       0.02983354
Li       0.02298533       6.12157076       6.08489725       0.84115851      -0.84242504      -0.77807341
Li       2.02986763       4.05892852       6.11120237       0.06931463       0.09533676      -0.27794628
Li       2.00790392       6.09071399       4.06498188       0.09902989      -0.23344923       0.05975218
F        2.02938931       6.12763194       6.11860451      -0.16377490       0.08289108       0.08295999
F       -0.00451028       6.13614996       4.08086620      -0.09217122       0.04617830       0.12283882
F        2.04481420       4.09103457       4.07831320      -0.05730346      -0.08784123      -0.01666358
F        0.00115207       4.08645798       6.13959080      -0.07252619       0.13113166       0.02600002
Li       4.10488987       4.07918457       4.03740267      -0.03620602       0.06486636       0.18168443
Li       4.09167197       6.11446412       6.12456758       0.11879088      -0.50300857      -0.49547755
Li       6.12726113       4.10035066       6.07808170      -0.49659418       0.15059723      -0.37918398
Li       6.08639405       6.13518573       4.09079294      -0.41320405      -0.46835858       0.16396696
F        6.12203933       6.10998117       6.09575884      -0.37101739      -0.35738951      -0.36747158
F        4.07071651       6.11117231       4.09090679      -0.00576981       0.28366210      -0.10220444
F        6.13354692       4.06947351       4.06215726       0.23251720      -0.05137604       0.02108665
F        4.07514545       4.07828601       6.12412192       0.01071662      -0.04591245       0.23758819
64
Lattice="28.160000039244697 0.0 0.0 0.0 28.160000039244697 0.0 0.0 0.0 28.160000039244697" Properties=species:S:1:pos:R:3:REF_forces:R:3 config_type=LIF64_ISOLATED REF_energy=-32503.748165279354 pbc="T T T"
Li       0.05083072       0.00662659      -0.02693660       0.78198483       0.86975458       0.92570872
Li      -0.00084651       2.03832110       2.05686691       0.28819624      -0.01164427      -0.06531810
Li       2.07236217       0.00459192       2.03452794      -0.03779753       0.31395741       0.00977405
Li       2.02252015       2.06131839       0.01680943       0.01227599      -0.03906148       0.30672926
F        2.03180183       2.04163576       2.03253638       0.07659111       0.01512374       0.05907932
F       -0.02828853       2.02456176       0.01140903       0.00102818      -0.10917161      -0.16740993
F        2.05959487       0.00198494      -0.00150487      -0.21492983      -0.06952726      -0.13173818
F       -0.00585898       0.00574754       2.03326711      -0.02031557      -0.11432230      -0.10995271
Li       4.10744521       0.02399931      -0.00570269       0.16533222       0.38347772       0.45777052
Li       4.07183884       2.03200530       2.03641561       0.03160014      -0.07432159      -0.00846690
Li       6.12643789       0.01378861       2.05639902      -0.49829213       0.41289371      -0.21863247
Li       6.09593999       2.02822978       0.00431096      -0.39543207      -0.20868513       0.43342449
F        6.14224678       2.03955739       2.04209784       0.19482483       0.03579336       0.01622495
F        4.09134453       2.04328923      -0.01778148      -0.03050948       0.07160419      -0.19818526
F        6.10328523      -0.00880688      -0.00578746      -0.35008192       0.44153812       0.39239277
F        4.07833215      -0.00062497       2.02696254      -0.00642647      -0.19782993       0.09551751
Li       0.00671769       4.09716369      -0.01924613       0.42204967       0.14766977       0.51481404
Li      -0.00785795       6.13008511       2.00344260       0.45878045      -0.49829316      -0.17984352
Li       2.05682477       4.08046110       2.07005770      -0.10966141       0.01587348      -0.12369809
Li       2.03315297       6.09069078       0.01421456      -0.16062196      -0.41246331       0.41828275
F        2.02725639       6.11090522       2.02835653       0.04058383       0.28803914       0.04002436
F       -0.01837612       6.11571607      -0.02103753       0.42791436      -0.42177456       0.42895668
F        2.03524120       4.06384296      -0.00014908       0.03779059       0.01935501      -0.29043618
F        0.00429683       4.08083716       2.04695125      -0.28562334       0.00810926       0.02169934
Li       4.09746823       4.06048689       0.01823462      -0.03020018       0.06561584       0.26838306
Li       4.08058493       6.12334370       2.04121152       0.00053402      -0.30919881      -0.01311494
Li       6.12578670       4.05273408       2.05511020      -0.29076606       0.07246217      -0.02949775
Li       6.12427020       6.10638767       0.02051407      -0.90087624      -0.84838948       0.85192938
F        6.10772227       6.10818904       2.06960470       0.11943854       0.13721386      -0.20705942
F        4.08696226       6.14012681       0.00366865       0.13710073       0.04244017      -0.06281668
F        6.11302628       4.09486699       0.00197409       0.12428173       0.11783212      -0.07669164
F        4.07779721       4.08763249       2.03210924       0.01853483      -0.09488579       0.03464047
Li       0.01804018       0.01855641       4.05650108       0.42013548       0.44178880       0.25105280
Li      -0.00614020       2.05673301       6.14510061       0.44447457      -0.25281760      -0.50874701
Li       2.03564068       0.00618513       6.12260005      -0.27048185       0.44957590      -0.46339327
Li       2.03555014       2.05941369       4.09848952      -0.03178629      -0.09009968      -0.00120456
F        2.03732334       2.04783486       6.12553820       0.06187823      -0.01259969       0.26363141
F       -0.01803147       2.04875806       4.09094157      -0.19841614       0.05700470      -0.06812806
F        2.04776127       0.00746982       4.08558063       0.04959607      -0.25302303      -0.01981138
F        0.00200277       0.01006113       6.12536640       0.42390755       0.39756017      -0.37291229
Li       4.08934268       0.00922525       4.12871415      -0.00416236       0.29070949      -0.10943258
Li       4.07751665       2.02087748       6.11561146       0.02906144       0.10098933      -0.29063442
Li       6.14153053      -0.01089656       6.14914119      -0.89227770       0.89735048      -0.91096756
Li       6.11797952       2.05106881       4.09620243      -0.30289421      -0.06360189      -0.00429631
F        6.12918014       2.02836627       6.12086051       0.10838614      -0.15824703       0.08567019
F        4.08607821       2.03862652       4.09338241      -0.00198206       0.00375432      -0.06783419
F        6.11850397      -0.01179075       4.07819257       0.10825784      -0.07420255       0.19072700
F        4.09820126      -0.01461765       6.13744180       0.12458203      -0.06334221       0.09315030
Li       0.00828762       4.08375720       4.05794938       0.26647016      -0.02794352       0.02974278
Li       0.02575955       6.12798519       6.08414893       0.83977063      -0.85352037      -0.77717789
Li       2.02811267       4.05525682       6.11228809       0.07320471       0.08488703      -0.28687366
Li       1.99902383       6.09038215       4.06511206       0.10976245      -0.24729153       0.05143080
F        2.02840662       6.12759338       6.11398628      -0.16440945       0.09883423       0.08613710
F       -0.00185230       6.13987245       4.07784570      -0.10020900       0.04392190       0.13305870
F        2.04497866       4.08583931       4.07386550      -0.06211322      -0.05293027      -0.00953416
F        0.00727962       4.08506728       6.13920006      -0.09624308       0.15322695       0.02750515
Li       4.11022794       4.07948339       4.03526805      -0.06298431       0.04980278       0.19685163
Li       4.08220979       6.11901822       6.11526841       0.12929281      -0.51380746      -0.47814291
Li       6.12399760       4.10035086       6.08221556      -0.49612752       0.16889808      -0.38399426
Li       6.08296028       6.13052637       4.09242751      -0.39290750      -0.45803894       0.16333061
F        6.12090393       6.11050289       6.09827597      -0.38416318      -0.36424690      -0.37847847
F        4.06713534       6.11023210       4.08879789       0.00219701       0.29114529      -0.10313003
F        6.13403723       4.06876372       4.06532548       0.22497127      -0.05062296       0.01531400
F        4.07023387       4.07767165       6.11787450       0.03790089      -0.04229927       0.25460066
64
Lattice="28.160000039244697 0.0 0.0 0.0 28.160000039244697 0.0 0.0 0.0 28.160000039244697" Properties=species:S:1:pos:R:3:REF_forces:R:3 config_type=LIF64_ISOLATED REF_energy=-32503.76640629447 pbc="T T T"
Li       0.04732243       0.00933792      -0.02755408       0.78692495       0.86920950       0.92665849
Li      -0.00433259       2.03452868       2.06012485       0.30624718       0.00093511      -0.07904882
Li       2.06615363       0.00775262       2.03411800      -0.03615382       0.30832746       0.01880659
Li       2.02103856       2.06180006       0.01192424       0.01124626      -0.04115873       0.32435675
F        2.02562306       2.04607761       2.03755894       0.11557340      -0.00223866       0.03077816
F       -0.02882554       2.02724475       0.01067892       0.00505556      -0.11984066      -0.16706206
F        2.05758447       0.00023511      -0.00037861      -0.20887899      -0.06086367      -0.12975124
F       -0.00275323       0.00837874       2.03591562      -0.03714061      -0.11268657      -0.11770279
Li       4.10780277       0.01744807      -0.00290313       0.16414745       0.40086532       0.45345312
Li       4.07188872       2.02502796       2.03825616       0.03187037      -0.06795503      -0.02056703
Li       6.12504495       0.00767028       2.05602288      -0.49641214       0.42730680      -0.21088317
Li       6.10100944       2.02883290       0.00736767      -0.41333851      -0.20974057       0.42402710
F        6.14257251       2.03870811       2.03706900       0.19735145       0.04309195       0.03099233
F        4.09234841       2.04121837      -0.01492050      -0.04908622       0.07930619      -0.18830245
F        6.10155705      -0.00716483      -0.00683869      -0.34740000       0.42206972       0.39794326
F        4.07796834      -0.00313447       2.03487892      -0.01046130      -0.19501020       0.06634372
Li       0.01214705       4.10636366      -0.01250196       0.40064909       0.12920205       0.50676726
Li      -0.00337665       6.13334044       2.00604238       0.45455458      -0.48926499      -0.17526799
Li       2.06234724       4.08632367       2.06699770      -0.13181686      -0.00794548      -0.11082714
Li       2.02811749       6.08571431       0.01436022      -0.14639887      -0.37869650       0.41106463
F        2.02250864       6.11769960       2.02682890       0.06965144       0.26195222       0.04873038
F       -0.02153104       6.11990493      -0.01945209       0.43619536      -0.43340340       0.42920196
F        2.03551298       4.06726810       0.00053738       0.04701288       0.02051149      -0.28720071
F        0.01181729       4.08075455       2.04589640      -0.31177968       0.02233697       0.02933243
Li       4.09568196       4.06339772       0.02533355      -0.01086574       0.06269995       0.24553470
Li       4.08348932       6.11977247       2.04342515       0.01357388      -0.29783479      -0.01771773
Li       6.12461992       4.04715169       2.05092065      -0.28871997       0.10083301      -0.01868652
Li       6.12406534       6.10839031       0.01735030      -0.90073611      -0.85097910       0.85436575
F        6.11336217       6.10250258       2.06888823       0.10847896       0.15913329      -0.20328864
F        4.08967058       6.14398521      -0.00062009       0.12198856       0.02922907      -0.03924840
F        6.11070011       4.10121802      -0.00026099       0.12825537       0.09169608      -0.07486795
F        4.08181611       4.09109363       2.03615891      -0.01498285      -0.11212555       0.01082769
Li       0.01999802       0.02669743       4.06544498       0.42347817       0.41283998       0.24214855
Li      -0.01497878       2.06286328       6.13763781       0.46888154      -0.26476809      -0.49158875
Li       2.03985524       0.01051262       6.12169827      -0.28245317       0.43944935      -0.45686986
Li       2.03801349       2.06479872       4.09899970      -0.05228467      -0.10961718      -0.01436167
F        2.03133178       2.04955013       6.12527951       0.09104585      -0.00915184       0.25207044
F       -0.02153719       2.05031384       4.09021739      -0.21856614       0.06555850      -0.04942663
F        2.04741517       0.00937289       4.08283315       0.05851599      -0.24235013      -0.00262947
F        0.00747097       0.00431597       6.12070933       0.40438825       0.41294205      -0.37354401
Li       4.08478752       0.00831005       4.13030416       0.00363554       0.28314145      -0.12213126
Li       4.08379622       2.02202101       6.10886471       0.01436578       0.08264914      -0.26145317
Li       6.14441787      -0.01644290       6.14573003      -0.89799249       0.89884198      -0.91200243
Li       6.12328903       2.06054201       4.10053749      -0.30455334      -0.08743525      -0.02926507
F        6.12750765       2.02940598       6.11927118       0.10869287      -0.16032885       0.07939207
F        4.08672341       2.03614252       4.09308472      -0.00122256       0.01468511      -0.05143723
F        6.12020481      -0.01094665       4.07398447       0.10857460      -0.07679885       0.21642724
F        4.09573683      -0.01730802       6.14101020       0.13633326      -0.04874992       0.07294117
Li      -0.00224237       4.08354885       4.05537289       0.29826982      -0.02169034       0.01578734
Li       0.02872014       6.11743939       6.08312221       0.83149116      -0.83236225      -0.77370588
Li       2.02924911       4.05321617       6.11186499       0.06296349       0.07661425      -0.27561763
Li       2.01134676       6.08709189       4.07007736       0.08178448      -0.23952654       0.03616642
F        2.02829093       6.12198765       6.11410658      -0.15083660       0.09033365       0.08113090
F       -0.00126865       6.13860608       4.07804312      -0.09531928       0.02512996       0.14026088
F        2.05002362       4.07754041       4.07086043      -0.06640825      -0.01482087       0.01642164
F        0.00997539       4.08424271       6.14044712      -0.11608814       0.15422917       0.01637870
Li       4.09776238       4.06385657       4.04141431      -0.01623883       0.09720570       0.16501674
Li       4.08148738       6.11359626       6.11377547       0.14269623      -0.49553231      -0.47380212
Li       6.11354962       4.09620122       6.07899828      -0.47230754       0.19018527      -0.37762898
Li       6.08618461       6.13373170       4.09446436      -0.40234576      -0.47635600       0.15030283
F        6.11581386       6.11355980       6.09571784      -0.37964344      -0.36784259      -0.37055896
F        4.06768069       6.10572940       4.08864127      -0.02311370       0.29889331      -0.09858432
F        6.13082326       4.07120667       4.06334626       0.23196750      -0.08587819       0.03781193
F        4.07432383       4.07633124       6.12042647       0.01768353      -0.05845146       0.24358966
64
Lattice="28.160000039244697 0.0 0.0 0.0 28.160000039244697 0.0 0.0 0.0 28.160000039244697" Properties=species:S:1:pos:R:3:REF_forces:R:3 config_type=LIF64_ISOLATED REF_energy=-32503.80404984263 pbc="T T T"
Li       0.06100480       0.01490112      -0.02712695       0.75378291       0.84862294       0.92930338
Li       0.00045717       2.04371831       2.06081320       0.28495716      -0.02966796      -0.07155406
Li       2.07496940       0.01902664       2.03524955      -0.08079049       0.27492780       0.03369636
Li       2.02157944       2.06216333       0.01517987       0.01269996      -0.03482559       0.29836290
F        2.02388630       2.04915555       2.03747951       0.13973149      -0.02076911       0.03250234
F       -0.02428764       2.02539076       0.01030616       0.01133856      -0.10968043      -0.15979766
F        2.05831929      -0.00044275       0.00282118      -0.18163507      -0.05496761      -0.11740917
F       -0.00256003       0.00629173       2.03792347      -0.01947919      -0.08883213      -0.12272312
Li       4.10711132       0.01350622       0.00977786       0.16701603       0.40577741       0.41340228
Li       4.07608023       2.01990192       2.04080811       0.03683697      -0.04316702      -0.02575345
Li       6.12688314       0.00192699       2.05083819      -0.48752101       0.44221895      -0.19673259
Li       6.10247990       2.03307833       0.00175968      -0.41623306      -0.22115087       0.43115755
F        6.13885015       2.03729785       2.03820558       0.19320246       0.04491177       0.00997845
F        4.08981725       2.04197005      -0.01858726      -0.03152918       0.06577602      -0.16443336
F        6.10293131      -0.00930687      -0.00845798      -0.36115335       0.42491234       0.41944206
F        4.07957170      -0.00129054       2.04327235      -0.01703947      -0.19232674       0.03283170
Li       0.01260250       4.10360595      -0.00708429       0.39761648       0.14952276       0.48045125
Li      -0.00608099       6.13317244       2.01010383       0.47470715      -0.47730885      -0.18150163
Li       2.06365204       4.07818920       2.05640196      -0.13134892       0.03594556      -0.07901540
Li       2.03256942       6.07259651       0.02144741      -0.15091861      -0.33213254       0.39269667
F        2.02251752       6.11774810       2.02672198       0.06829647       0.24663667       0.05187458
F       -0.01658686       6.11917053      -0.02606119       0.42315447      -0.45228096       0.45063237
F        2.03658238       4.06641997      -0.00063751       0.05592021      -0.00004242      -0.27604726
F        0.01608378       4.08163364       2.04317349      -0.32631850       0.00732147       0.03077431
Li       4.09940862       4.05866655       0.02362440      -0.02879456       0.08386064       0.24073830
Li       4.08800996       6.11937812       2.05104365      -0.01362659      -0.28391098      -0.04177374
Li       6.11411064       4.04788272       2.04609692      -0.26381421       0.10018715       0.00474009
Li       6.12498131       6.10059027       0.02228624      -0.90583178      -0.81693229       0.84083892
F        6.11413662       6.10001986       2.06537238       0.10934593       0.15427905      -0.18477053
F        4.08870616       6.15037550      -0.00047083       0.13833975      -0.00884254      -0.03101907
F        6.11131446       4.10268225       0.00066339       0.12277146       0.06746498      -0.08039865
F        4.08037966       4.09245389       2.03338509       0.00044274      -0.13578587       0.01207467
Li       0.02202080       0.02743758       4.05869349       0.41274202       0.41231393       0.23875521
Li      -0.02191838       2.05872266       6.14352611       0.47852909      -0.26330616      -0.51122041
Li       2.03270405       0.00967695       6.11754980      -0.26706511       0.43707263      -0.44727013
Li       2.04445257       2.06786693       4.10505823      -0.07957899      -0.11315065      -0.01333528
F        2.03580323       2.05033100       6.12653641       0.07335846      -0.00169359       0.24641581
F       -0.02537378       2.05088286       4.09265933      -0.20298217       0.08170683      -0.05697796
F        2.04273657       0.01014897       4.08612045       0.08785691      -0.22508157      -0.01814273
F        0.00668179       0.00703265       6.11962703       0.39897402       0.41505653      -0.35736688
Li       4.09038624       0.01591498       4.12840258      -0.00752613       0.25917825      -0.09507014
Li       4.08674898       2.02075155       6.11194552       0.01262514       0.08052978      -0.24754144
Li       6.14281871      -0.01685527       6.14487611      -0.90308147       0.89721242      -0.90220267
Li       6.12255133       2.06226846       4.09977789      -0.29590672      -0.09078051      -0.02688165
F        6.12446607       2.02668244       6.11880585       0.11878471      -0.15596209       0.07749922
F        4.08652016       2.03770385       4.09321773      -0.01422591       0.01130231      -0.05825888
F        6.11463500      -0.00730621       4.07504452       0.12494070      -0.08917743       0.20521620
F        4.09602396      -0.01805045       6.14567435       0.13600004      -0.04254327       0.05280326
Li      -0.00197869       4.08159789       4.05626282       0.30268312      -0.00757344       0.01738400
Li       0.02436380       6.11062593       6.09131102       0.83984468      -0.82010298      -0.79888675
Li       2.02867161       4.05024342       6.11442453       0.06845202       0.08699919      -0.27931719
Li       2.01522824       6.08358825       4.07151936       0.06113980      -0.22905881       0.02173842
F        2.02694576       6.11927042       6.11069876      -0.14174800       0.08908847       0.09845731
F       -0.00329893       6.13996428       4.07823213      -0.09985419       0.00946269       0.13807904
F        2.05155577       4.08027109       4.06655319      -0.06515767      -0.05001284       0.03473483
F        0.01120029       4.08797767       6.13877083      -0.12336770       0.13249974       0.03303353
Li       4.09203714       4.05755561       4.04057438      -0.00299508       0.12415677       0.17190859
Li       4.07686521       6.11209959       6.11327991       0.15220339      -0.49931620      -0.47385123
Li       6.11625488       4.09338644       6.06986646      -0.48500262       0.19992178      -0.36047509
Li       6.08468424       6.13948454       4.09446040      -0.40639474      -0.48952930       0.15517610
F        6.10892850       6.11241426       6.09054909      -0.35807805      -0.35047684      -0.36732091
F        4.06604017       6.10594543       4.08482730      -0.01098272       0.29603373      -0.09429392
F        6.13012348       4.06763457       4.06583671       0.22731432      -0.08153251       0.01348338
F        4.07776781       4.07805134       6.12246472      -0.00562789      -0.07297794       0.23115966
64
Lattice="28.160000039244697 0.0 0.0 0.0 28.160000039244697 0.0 0.0 0.0 28.160000039244697" Properties=species:S:1:pos:R:3:REF_forces:R:3 config_type=LIF64_ISOLATED REF_energy=-32503.81616843243 pbc="T T T"
Li       0.06333751       0.01404152      -0.02381683       0.74150075       0.85280664       0.92421568
Li      -0.00331534       2.04794986       2.05842329       0.29286253      -0.02462140      -0.08065216
Li       2.06824534       0.01956795       2.02866848      -0.05656607       0.27606037       0.04950042
Li       2.02358056       2.06527559       0.01353956       0.01083386      -0.02534979       0.30162665
F        2.02502649       2.05500586       2.03454548       0.13391077      -0.03956182       0.04893786
F       -0.02583672       2.02994400       0.00789656       0.01852531      -0.12615169      -0.15847869
F        2.05528153      -0.00177665       0.01252528      -0.18259075      -0.05452024      -0.14742088
F       -0.00445272       0.00726071       2.03954743      -0.01774575      -0.08312351      -0.13655257
Li       4.10816981       0.01029613       0.00710519       0.17271308       0.41336320       0.43332447
Li       4.07175391       2.02064831       2.03764587       0.05040622      -0.06774060      -0.02777923
Li       6.13166660       0.00416004       2.05298627      -0.50489267       0.44002477      -0.21237235
Li       6.09866232       2.03648466      -0.00086940      -0.41342619      -0.21783594       0.43691604
F        6.13905681       2.04009488       2.03321090       0.19693802       0.05061114       0.03996806
F        4.09152643       2.04442686      -0.01975855      -0.04606054       0.04824829      -0.16298737
F        6.09940041      -0.00930703      -0.00745992      -0.35165749       0.41780838       0.40966338
F        4.07701912      -0.00025139       2.04064767      -0.01371144      -0.19168011       0.03979271
Li       0.01353309       4.10630179      -0.01610687       0.40708251       0.14019094       0.49904547
Li      -0.00704650       6.12770408       1.99999665       0.47432225      -0.47997020      -0.15801949
Li       2.07170248       4.07024440       2.06409052      -0.16901095       0.06302237      -0.11277501
Li       2.03209266       6.07536657       0.02806716      -0.13851715      -0.34491529       0.38436398
F        2.02146644       6.12165857       2.02453795       0.08283117       0.23844616       0.07017132
F       -0.01638430       6.11583549      -0.02495919       0.41767185      -0.44061689       0.42997227
F        2.04325406       4.06513931       0.00224649       0.03867042       0.00891504      -0.28384259
F        0.01812302       4.08514891       2.03662122      -0.33101256      -0.01637921       0.06179081
Li       4.09974587       4.05910449       0.03705479      -0.03212311       0.08951064       0.18634482
Li       4.09642540       6.11890458       2.05098273      -0.05520544      -0.26975603      -0.04336243
Li       6.11053090       4.05830464       2.05275579      -0.24531589       0.05699004      -0.02073415
Li       6.12633880       6.10377122       0.03898790      -0.90679029      -0.82549869       0.79358899
F        6.11753717       6.09842702       2.07329575       0.10761635       0.15867537      -0.19897047
F        4.08884694       6.14965170      -0.00047770       0.15664909       0.01096653       0.00381346
F        6.10710640       4.10447284       0.00093201       0.14077690       0.08425479      -0.05863375
F        4.08316084       4.09499131       2.02932044       0.00262561      -0.13042641       0.05709520
Li       0.02673974       0.03100172       4.05329593       0.39610081       0.40226529       0.24355263
Li      -0.01823370       2.05660986       6.15118288       0.46284742      -0.26750606      -0.51330840
Li       2.02726742       0.01763031       6.11547386      -0.26430246       0.41570496      -0.43977357
Li       2.04501019       2.06827470       4.11251942      -0.07038266      -0.12375311      -0.03722366
F        2.03659145       2.04995452       6.12709948       0.06868291      -0.01128869       0.23469210
F       -0.02577695       2.04587319       4.09115063      -0.19123377       0.10793620      -0.05533348
F        2.04185218       0.00780954       4.08329598       0.08582625      -0.20903094      -0.00362140
F        0.00415406       0.01029388       6.12277756       0.41273199       0.42202499      -0.35533597
Li       4.09041488       0.01237104       4.12647950      -0.01623703       0.26201315      -0.11584825
Li       4.09758979       2.01206329       6.11257415      -0.00333652       0.11390373      -0.24841999
Li       6.13250941      -0.02138356       6.14608148      -0.88160402       0.89756774      -0.90035970
Li       6.12220468       2.06108824       4.09244579      -0.29814589      -0.09472433      -0.01560403
F        6.12396343       2.02367058       6.11980815       0.11522887      -0.16187614       0.06542043
F        4.08919590       2.03727700       4.08806959      -0.02103677       0.01381222      -0.04239389
F        6.11334431      -0.00976539       4.07009707       0.12198008      -0.08391438       0.21415130
F        4.09384904      -0.01852414       6.14510417       0.14694934      -0.04225351       0.04843778
Li       0.00102769       4.07025046       4.05898402       0.29146231       0.03325696       0.00332289
Li       0.01159438       6.10297040       6.10065040       0.86903673      -0.81220558      -0.82687603
Li       2.02560988       4.05026385       6.10696984       0.09179430       0.10374813      -0.25493182
Li       2.01375628       6.08765867       4.06894305       0.03926409      -0.22908452       0.03589157
F        2.02772905       6.11729445       6.10978366      -0.14817807       0.08399820       0.09526709
F       -0.00518526       6.13548238       4.08345437      -0.10115543       0.00369210       0.13188191
F        2.05196304       4.07842601       4.06625458      -0.05907444      -0.05704069       0.02777254
F        0.01263014       4.08514051       6.13992637      -0.13361946       0.11564925       0.03837423
Li       4.09425741       4.05901547       4.03628158      -0.01222662       0.11390553       0.20244249
Li       4.08173147       6.10593220       6.10753940       0.13222438      -0.48959898      -0.45000219
Li       6.12278686       4.09824578       6.06549659      -0.50376267       0.19013256      -0.34042743
Li       6.08436507       6.13656699       4.09312931      -0.40095120      -0.47041906       0.17766503
F        6.10920873       6.11495295       6.09270425      -0.34912264      -0.36103148      -0.38265934
F        4.06854135       6.10526851       4.08424741      -0.00840262       0.28905576      -0.11138842
F        6.12836165       4.06943538       4.07045954       0.23648441      -0.08367475      -0.00905234
F        4.07681490       4.07885991       6.12206622       0.01084826      -0.08301141       0.21613696
64
Lattice="28.160000039244697 0.0 0.0 0.0 28.160000039244697 0.0 0.0 0.0 28.160000039244697" Properties=species:S:1:pos:R:3:REF_forces:R:3 config_type=LIF64_ISOLATED REF_energy=-32503.801755106622 pbc="T T T"
Li       0.06594545       0.01238997      -0.01736077       0.73960199       0.84942461       0.92537088
Li      -0.00649460       2.05126951       2.05732589       0.30987295      -0.04893786      -0.07766197
Li       2.07844710       0.01987431       2.02321768      -0.07749485       0.28061226       0.06053457
Li       2.02423153       2.07247626       0.01793473      -0.00005399      -0.04301044       0.29424784
F        2.02400688       2.04822891       2.03460177       0.13915402       0.01392252       0.04213935
F       -0.02392114       2.02838181       0.00840192       0.00415799      -0.10059544      -0.15490614
F        2.05717857      -0.00168560       0.01557534      -0.16995763      -0.05643829      -0.16496866
F       -0.00630765       0.00437775       2.03742799      -0.02245910      -0.07581952      -0.13620625
Li       4.11173176       0.01279105       0.00094005       0.15786239       0.40907794       0.44846158
Li       4.07566149       2.02564491       2.03067115       0.05080063      -0.08976492       0.00017561
Li       6.13273193      -0.00689762       2.05709021      -0.51633228       0.46871005      -0.20506990
Li       6.09780747       2.02939642      -0.00032070      -0.40212593      -0.20137471       0.44434705
F        6.13815966       2.03925696       2.03828087       0.20722063       0.05438706       0.02624325
F        4.09389508       2.04956960      -0.01841865      -0.05038591       0.02767253      -0.16623185
F        6.09866542      -0.00785272      -0.00806782      -0.34879046       0.41155468       0.40235888
F        4.07650577       0.00237534       2.03947497       0.00544380      -0.21008073       0.03145950
Li       0.00247089       4.10955336      -0.02125330       0.43670959       0.13546011       0.50884317
Li      -0.00451470       6.13978932       2.00227646       0.47081321      -0.49992324      -0.14971174
Li       2.06755042       4.07314028       2.06185278      -0.16135806       0.04891987      -0.11300281
Li       2.02941395       6.07657714       0.03081593      -0.12030680      -0.35509660       0.36392731
F        2.02268492       6.11974541       2.02821875       0.07604629       0.24955950       0.04974493
F       -0.01562383       6.11895402      -0.02597133       0.41205553      -0.44360220       0.44116222
F        2.04451398       4.06531001       0.00069863       0.01987591       0.01099995      -0.26510028
F        0.02204309       4.08682611       2.04266021      -0.34712747      -0.02049915       0.03769340
Li       4.10386810       4.05356155       0.03877138      -0.03414836       0.11648357       0.17164890
Li       4.09379941       6.12110006       2.05410340      -0.04613330      -0.27215178      -0.05533708
Li       6.11329022       4.05955896       2.06020589      -0.25131736       0.04917106      -0.05303903
Li       6.12578221       6.10190504       0.03658080      -0.91477099      -0.82577380       0.78945054
F        6.11744297       6.10299627       2.07828437       0.10044066       0.14136362      -0.20715892
F        4.08863800       6.14778793      -0.01133444       0.15731732       0.01742025       0.03904709
F        6.10498986       4.10230981       0.00033819       0.15711497       0.09234194      -0.04681645
F        4.08650403       4.09944345       2.03061666      -0.01702585      -0.14112040       0.05792515
Li       0.02856916       0.03199813       4.05270803       0.39376676       0.39145226       0.23851276
Li      -0.01497672       2.06016219       6.14638556       0.44539400      -0.28693640      -0.49603805
Li       2.03253091       0.02356859       6.11365123      -0.28400123       0.39942833      -0.42924182
Li       2.04747766       2.07113923       4.11582957      -0.07155457      -0.14303510      -0.06220347
F        2.03919248       2.05144660       6.12995496       0.06211631      -0.00943723       0.22004478
F       -0.02565613       2.04033506       4.09464321      -0.18987623       0.13786024      -0.06104262
F        2.04285170       0.01004554       4.07948968       0.09320892      -0.21676277       0.02717348
F        0.00166924       0.00826935       6.12520161       0.43490570       0.43390451      -0.36482848
Li       4.08670001       0.00887566       4.12799502      -0.00987458       0.27593413      -0.13867296
Li       4.09940993       2.01275262       6.10738809      -0.01033455       0.11388624      -0.23233208
Li       6.12710409      -0.02929084       6.13650593      -0.87109669       0.89279835      -0.88908876
Li       6.12791910       2.07323406       4.10106194      -0.31625366      -0.14184159      -0.05395486
F        6.12287506       2.02434086       6.12109955       0.11625449      -0.14939343       0.04407899
F        4.08822416       2.03476363       4.08435990      -0.01289177       0.03557121      -0.00903229
F        6.11510791      -0.01795961       4.06795376       0.11387622      -0.08169449       0.23731874
F        4.09504854      -0.01934411       6.14658782       0.14510175      -0.04085611       0.03239256
Li       0.00102986       4.06676875       4.06020553       0.28227293       0.04243709       0.00171775
Li       0.00972890       6.11172307       6.10223963       0.86861069      -0.82236735      -0.83795749
Li       2.02112129       4.05494806       6.10833682       0.09937365       0.09352054      -0.24995982
Li       2.01325472       6.07692176       4.06932877       0.04040309      -0.19775871       0.03865551
F        2.03291957       6.11816763       6.10555890      -0.17577372       0.07478645       0.11113953
F       -0.00666130       6.13948827       4.08432669      -0.09660329       0.00403406       0.13641091
F        2.04869047       4.07801782       4.06565033      -0.05284337      -0.06536876       0.03734065
F        0.00787069       4.08535304       6.14112637      -0.11214098       0.12744727       0.02907481
Li       4.09348487       4.05913316       4.03549610      -0.02353871       0.10712296       0.19529123
Li       4.07901815       6.10061213       6.10763049       0.13695495      -0.46936157      -0.44960778
Li       6.12462251       4.09516613       6.06325401      -0.50712259       0.20447598      -0.32027975
Li       6.07919508       6.13074190       4.09193359      -0.39023844      -0.43627635       0.18165564
F        6.10978048       6.11844946       6.09184556      -0.35715734      -0.39243802      -0.39516904
F        4.06390021       6.10536021       4.08352526       0.01127480       0.27018078      -0.10878132
F        6.12790078       4.06465911       4.06721182       0.23999268      -0.05852499       0.02383850
F        4.07287019       4.07967542       6.12138574       0.03309447      -0.08568047       0.20397436
64
Lattice="28.160000039244697 0.0 0.0 0.0 28.160000039244697 0.0 0.0 0.0 28.160000039244697" Properties=species:S:1:pos:R:3:REF_forces:R:3 config_type=LIF64_ISOLATED REF_energy=-32503.80174027642 pbc="T T T"
Li       0.06781686       0.01491952      -0.02057574       0.74121690       0.84158326       0.92715780
Li      -0.00862412       2.06124148       2.06412451       0.31076435      -0.09158321      -0.10078750
Li       2.08307275       0.02107547       2.02020347      -0.08844929       0.26887800       0.05895771
Li       2.02085891       2.07564263       0.01873696       0.00015375      -0.06053328       0.27666921
F        2.02150365       2.04435810       2.03536486       0.13399613       0.03475797       0.04852186
F       -0.02153750       2.03197719       0.00373032      -0.00324422      -0.10097211      -0.12813915
F        2.06107646      -0.00533596       0.01228858      -0.18238300      -0.03896841      -0.15095898
F       -0.00749101       0.00197778       2.03505792      -0.01829211      -0.05458272      -0.12764062
Li       4.11445208       0.01882599       0.00280720       0.14574684       0.38965891       0.42801771
Li       4.08204577       2.02532801       2.02440729       0.04296879      -0.09383215       0.01958486
Li       6.12989337      -0.01371908       2.04791396      -0.50171864       0.47082170      -0.17892590
Li       6.10303795       2.03098761       0.00249750      -0.40345391      -0.20326705       0.43446938
F        6.14114822       2.03882523       2.03935024       0.19128262       0.06402870       0.00413690
F        4.09381872       2.04664938      -0.01994058      -0.04004493       0.04354600      -0.14471274
F        6.09847581      -0.00859696      -0.00768412      -0.34019037       0.41553604       0.40456128
F        4.07912146       0.00224537       2.03698254      -0.00301333      -0.19443376       0.03789729
Li      -0.00088891       4.10988628      -0.00934813       0.43591331       0.12003041       0.46397845
Li       0.00196765       6.13575917       1.99255023       0.45335568      -0.46528663      -0.11458070
Li       2.06515221       4.07197052       2.05789840      -0.14327935       0.04959324      -0.10073145
Li       2.02219376       6.07368964       0.03227733      -0.09124254      -0.34660219       0.35133893
F        2.02711783       6.11721485       2.02587631       0.04937829       0.23399276       0.05174139
F       -0.01596646       6.12087512      -0.02507931       0.41890187      -0.45798186       0.45224830
F        2.04349034       4.05866444      -0.00175650       0.01416215       0.03914787      -0.23799082
F        0.02222338       4.08840632       2.04385587      -0.34912753      -0.03123582       0.02836158
Li       4.10444504       4.04809004       0.04616658      -0.03156646       0.13609235       0.14295694
Li       4.08967307       6.11406558       2.05743997      -0.03684365      -0.24895915      -0.05965525
Li       6.11471319       4.06201409       2.05906990      -0.24429748       0.04478373      -0.05097958
Li       6.12985148       6.10942661       0.03214302      -0.93485928      -0.84192444       0.80000003
F        6.11896083       6.10108773       2.08281702       0.10870496       0.13768103      -0.22587373
F        4.08932976       6.14586041      -0.00433393       0.15701367       0.01903079       0.02766816
F        6.10276174       4.10375976      -0.00214675       0.16330696       0.08561979      -0.03043518
F        4.08198646       4.09752693       2.03408920      -0.00195584      -0.15639558       0.04068694
Li       0.02825627       0.02872483       4.04763508       0.38600666       0.38500264       0.23692716
Li      -0.01159022       2.06383839       6.14354063       0.41870364      -0.29839786      -0.47570834
Li       2.01871359       0.02302864       6.11216729      -0.25261654       0.38410122      -0.42460483
Li       2.03736809       2.07397344       4.11585512      -0.03929340      -0.16084899      -0.06912282
F        2.04192739       2.05621708       6.13087079       0.03446307      -0.01978875       0.20149273
F       -0.03197244       2.04057268       4.09939521      -0.17063023       0.14952559      -0.08050638
F        2.04163292       0.00979338       4.08308767       0.07325279      -0.19430546       0.01239452
F       -0.00551420       0.00998847       6.12997989       0.45653099       0.44523613      -0.37758218
Li       4.09153194       0.01933662       4.12535608      -0.01089839       0.24415453      -0.11533403
Li       4.09272619       2.01092059       6.10814259       0.02004715       0.11022936      -0.22016588
Li       6.13163758      -0.03305886       6.14005566      -0.88385991       0.89965985      -0.89868694
Li       6.12886580       2.07709557       4.10447207      -0.30176935      -0.16294495      -0.05133850
F        6.12492285       2.02018910       6.12160348       0.09983619      -0.14230182       0.03076556
F        4.08996034       2.03921269       4.08480446      -0.02845671       0.02908689      -0.01183170
F        6.11587663      -0.02304095       4.06638527       0.10426466      -0.06903618       0.23162477
F        4.09048017      -0.02339862       6.14548395       0.14907333      -0.01755524       0.03038735
Li      -0.00271049       4.06762866       4.06021058       0.27542660       0.06856978       0.01017386
Li       0.01460614       6.10473749       6.09932354       0.85855537      -0.78894121      -0.83244170
Li       2.01491471       4.04773415       6.10105096       0.13308081       0.12962037      -0.21962312
Li       2.01784458       6.06814248       4.07403036       0.03419721      -0.16252354       0.03803793
F        2.03630984       6.12061854       6.10169321      -0.19462197       0.06753954       0.11132234
F       -0.01136053       6.14404631       4.08543887      -0.07592082      -0.02872874       0.12525463
F        2.04278617       4.08035088       4.06391433      -0.05050238      -0.09584044       0.03804101
F        0.01074948       4.08889885       6.14035995      -0.11611076       0.10929194       0.02269616
Li       4.09360151       4.05186614       4.03289089      -0.01766425       0.13350659       0.21357743
Li       4.07571980       6.10416502       6.11125810       0.14834134      -0.47427366      -0.45637390
Li       6.12369132       4.10913436       6.05501036      -0.50695675       0.19317058      -0.28852148
Li       6.08828658       6.12701439       4.08086131      -0.41294925      -0.42103845       0.21357460
F        6.11267142       6.12175390       6.09518788      -0.34642941      -0.40150835      -0.41813954
F        4.06761269       6.10160140       4.08717929       0.00109915       0.26273949      -0.13707117
F        6.13241214       4.06320241       4.06282564       0.23339677      -0.04982181       0.03585815
F        4.07319432       4.09053187       6.12594812       0.02950109      -0.13180272       0.17738066
64
Lattice="28.160000039244697 0.0 0.0 0.0 28.160000039244697 0.0 0.0 0.0 28.160000039244697" Properties=species:S:1:pos:R:3:REF_forces:R:3 config_type=LIF64_ISOLATED REF_energy=-32503.78900766174 pbc="T T T"
Li       0.07178556       0.00569594      -0.02076147       0.72830225       0.85659490       0.93985519
Li      -0.00135397       2.06472342       2.06855109       0.28615530      -0.10969637      -0.11443235
Li       2.08707419       0.02193210       2.02221977      -0.10523602       0.26513164       0.06609843
Li       2.01479577       2.06903407       0.02189811       0.01623472      -0.05388595       0.27043660
F        2.01826235       2.04837936       2.03257840       0.13964664       0.03332458       0.06125216
F       -0.02562015       2.03343924       0.00334981       0.01908401      -0.10684322      -0.12860067
F        2.06311499      -0.00437651       0.01492362      -0.19555913      -0.04995396      -0.16316838
F       -0.00905784       0.00035470       2.03564877      -0.01378240      -0.05092198      -0.14027373
Li       4.11901539       0.01076057       0.00477744       0.13490758       0.42197845       0.43325377
Li       4.07747234       2.03429423       2.03030312       0.04926002      -0.11387030      -0.01556263
Li       6.13180620      -0.00983131       2.04880126      -0.50973046       0.47692344      -0.17414082
Li       6.10717534       2.03124330       0.00089650      -0.42971310      -0.20290143       0.43982191
F        6.14318392       2.03990097       2.03747399       0.20225686       0.06863714       0.02351145
F        4.09586395       2.04587460      -0.01866865      -0.04601478       0.05186352      -0.14997399
F        6.09824087      -0.00887679      -0.00696210      -0.33105293       0.40394730       0.40849353
F        4.07130828       0.00726396       2.03766383       0.03230540      -0.21171338       0.04210901
Li       0.00108735       4.10907091      -0.00733100       0.41532855       0.10924514       0.45948545
Li       0.00717866       6.14736216       1.99131381       0.43212274      -0.48836125      -0.10522908
Li       2.05306754       4.08013507       2.05168230      -0.11127272       0.02367472      -0.07090125
Li       2.02330413       6.07135799       0.03345230      -0.08839556      -0.34097739       0.34110954
F        2.02878521       6.11482669       2.03098927       0.04657425       0.24697091       0.02114115
F       -0.01713826       6.11699881      -0.02289849       0.43381941      -0.43819414       0.45658756
F        2.04324053       4.05937731       0.00029726       0.01944063       0.05146809      -0.23663071
F        0.02132597       4.08636394       2.04422097      -0.34037344      -0.01626866       0.03617362
Li       4.10083236       4.04834521       0.04568405      -0.01621775       0.11570864       0.14881237
Li       4.09232376       6.11348748       2.05656454      -0.03610703      -0.25241445      -0.06033196
Li       6.12005661       4.06181192       2.05638571      -0.26198616       0.03858249      -0.07297973
Li       6.13406323       6.10704041       0.03680720      -0.94145647      -0.83505934       0.78958295
F        6.11595899       6.10170973       2.08124386       0.12576628       0.13368168      -0.21751019
F        4.09305819       6.14896892      -0.00212038       0.13621422       0.00909862       0.03131706
F        6.10181178       4.10295158      -0.00025745       0.18090436       0.09442968      -0.03604764
F        4.08940222       4.09412872       2.03627911      -0.03247740      -0.13515441       0.03584606
Li       0.02050830       0.03597034       4.04638527       0.40285330       0.36508456       0.24230668
Li      -0.01103420       2.06466496       6.14539862       0.42248727      -0.31429834      -0.47841828
Li       2.02209240       0.02257632       6.11638023      -0.27436036       0.38661421      -0.44031016
Li       2.04480593       2.07345597       4.11227049      -0.06635863      -0.16544689      -0.05619197
F        2.03623681       2.05742304       6.12628386       0.06456657      -0.02681429       0.21096339
F       -0.03232897       2.03593360       4.10063067      -0.18116456       0.17552896      -0.09105536
F        2.03589051       0.01081480       4.08172579       0.10309301      -0.19338141       0.01927016
F       -0.00740971       0.00653438       6.13502595       0.45968933       0.45607051      -0.37631334
Li       4.09404471       0.01405238       4.12694170      -0.01920665       0.25401754      -0.12066907
Li       4.09569909       2.01118846       6.10344187       0.01213175       0.10839180      -0.19897047
Li       6.13693523      -0.03957700       6.13765953      -0.89333288       0.91550941      -0.90026637
Li       6.12456504       2.09586202       4.10179507      -0.29150911      -0.23159572      -0.04859102
F        6.12483108       2.01747965       6.12543640       0.10378155      -0.11263643      -0.00090709
F        4.08820273       2.03721256       4.08289547      -0.00943903       0.05359516      -0.00112974
F        6.11212280      -0.02026993       4.06640102       0.11535769      -0.08495722       0.22494813
F        4.09276720      -0.02403799       6.14534386       0.13768335      -0.02077940       0.02679372
Li      -0.00826089       4.06535343       4.06050792       0.28792010       0.06881095       0.00749682
Li       0.02162928       6.10152293       6.10031017       0.85274133      -0.77655543      -0.83104610
Li       2.00898738       4.04779239       6.09136980       0.15227693       0.12424882      -0.20480174
Li       2.02070979       6.07415135       4.07041829       0.02880561      -0.18317644       0.05491851
F        2.03833399       6.12388991       6.10263051      -0.21103538       0.05739062       0.09770063
F       -0.00864610       6.14546798       4.08423237      -0.07469852      -0.02720561       0.12384361
F        2.04605091       4.07975289       4.06449041      -0.06371476      -0.08704804       0.02498469
F        0.01045489       4.08481411       6.13776520      -0.12115012       0.13122191       0.02041662
Li       4.09825853       4.05105249       4.03230057      -0.05894922       0.14344287       0.21103460
Li       4.07759904       6.09984211       6.10131523       0.14346550      -0.46431346      -0.42303852
Li       6.13072788       4.10760934       6.04812150      -0.52206018       0.20467164      -0.24677911
Li       6.08525865       6.11801663       4.07584154      -0.40469189      -0.38634502       0.22626042
F        6.11192733       6.12055940       6.09297199      -0.33175921      -0.41276979      -0.43355870
F        4.06627816       6.10203987       4.08905893       0.01434213       0.25963874      -0.15921068
F        6.13324359       4.06611586       4.05893738       0.24094116      -0.05814396       0.04910704
F        4.07373232       4.09263905       6.12543985       0.04234607      -0.15381522       0.15210775
64
Lattice="28.160000039244697 0.0 0.0 0.0 28.160000039244697 0.0 0.0 0.0 28.160000039244697" Properties=species:S:1:pos:R:3:REF_forces:R:3 config_type=LIF64_ISOLATED REF_energy=-32503.847538532096 pbc="T T T"
Li       0.07014310       0.00888927      -0.01127314       0.73742967       0.84771791       0.90778454
Li      -0.00623907       2.05601169       2.07095129       0.29562647      -0.07064414      -0.12318181
Li       2.08297528       0.02558909       2.02567778      -0.06317098       0.24438516       0.06036025
Li       2.01341526       2.07458499       0.02314132       0.02185463      -0.07032996       0.25222213
F        2.02558232       2.04460806       2.03283755       0.08717248       0.04739752       0.06028131
F       -0.02609954       2.03963138       0.00023993       0.01714874      -0.13636077      -0.09548049
F        2.06781150       0.00060729       0.01557341      -0.23384286      -0.05079137      -0.15710160
F       -0.01125208      -0.00658985       2.03871531      -0.01260123      -0.02150239      -0.15360130
Li       4.11881999       0.01566342       0.00000483       0.12999266       0.41316934       0.44628592
Li       4.07048570       2.03036321       2.03222119       0.07818622      -0.12104985      -0.01071327
Li       6.12653693      -0.00821528       2.04591293      -0.50095734       0.47968506      -0.16966915
Li       6.10463425       2.02958340       0.00049694      -0.42179307      -0.19812587       0.44714981
F        6.13938841       2.03968190       2.03857410       0.20010510       0.07742517       0.01475505
F        4.09686929       2.04632625      -0.02021957      -0.05622566       0.06051528      -0.14780475
F        6.09947798      -0.00777702      -0.00211522      -0.33398167       0.40167805       0.39216137
F        4.06943934       0.00588122       2.03546936       0.03399770      -0.21257110       0.05586724
Li      -0.00368646       4.11588449      -0.00998998       0.42069084       0.09828890       0.45337882
Li       0.00159751       6.13795312       2.00244101       0.45259720      -0.46613200      -0.12214591
Li       2.05614581       4.07689957       2.04608256      -0.12136070       0.03426946      -0.05174268
Li       2.02009205       6.06092925       0.03871997      -0.08363104      -0.30202646       0.32039159
F        2.02979473       6.11284052       2.03284803       0.03990686       0.23121776       0.03150450
F       -0.00998216       6.11610395      -0.02601989       0.40824079      -0.44985435       0.47043629
F        2.04253197       4.06086670      -0.00372323       0.02668779       0.03529070      -0.21161773
F        0.01958017       4.08349530       2.04338341      -0.33369602      -0.00630152       0.04146007
Li       4.09893078       4.04778615       0.04724055      -0.00676612       0.11250659       0.12681272
Li       4.09663869       6.11306314       2.05408095      -0.04615490      -0.23760284      -0.05751275
Li       6.11614769       4.06566881       2.05573207      -0.24482044       0.01465812      -0.05761662
Li       6.12797925       6.09455307       0.04169075      -0.92277921      -0.80107501       0.76175719
F        6.11889765       6.10207597       2.08045499       0.10411914       0.11813345      -0.22457892
F        4.09276660       6.15189909      -0.00733056       0.13891799      -0.01793833       0.06141723
F        6.09921944       4.10051738      -0.00595672       0.17163631       0.09975829      -0.01341447
F        4.08586206       4.09740371       2.03717649      -0.03084552      -0.13777539       0.01535334
Li       0.01674506       0.02860010       4.03912467       0.42189900       0.36541418       0.27530961
Li      -0.01458265       2.06592289       6.14316102       0.42817275      -0.31054221      -0.47070728
Li       2.02048636       0.02336909       6.12658332      -0.26216613       0.38426217      -0.46703498
Li       2.03139417       2.07172834       4.11721892      -0.02567272      -0.17495406      -0.05662418
F        2.03804613       2.05916719       6.12480146       0.05511674      -0.02896733       0.22130359
F       -0.02935549       2.03883169       4.09687152      -0.18966360       0.14822513      -0.09710491
F        2.03660238       0.00413108       4.08746181       0.08171583      -0.17457199      -0.00544277
F       -0.00722725       0.00991511       6.13309936       0.44644095       0.45692643      -0.36886691
Li       4.09816279       0.00698000       4.12798842      -0.03062235       0.26797580      -0.11141233
Li       4.09202115       2.02024825       6.10151443       0.01670806       0.08383905      -0.20401806
Li       6.13729843      -0.02547859       6.14091352      -0.89822286       0.89371083      -0.89839410
Li       6.12182754       2.09182616       4.10798710      -0.29147825      -0.21929350      -0.07821733
F        6.12051617       2.02128065       6.12432536       0.11562097      -0.11248576       0.00805321
F        4.09060032       2.03835951       4.08142590      -0.03405812       0.05318301       0.00620947
F        6.11082505      -0.01779115       4.06918796       0.11922437      -0.08431804       0.21980721
F        4.09580780      -0.02417003       6.14556551       0.12833199      -0.01063845       0.03933865
Li      -0.00325707       4.06725780       4.05712857       0.28093107       0.06582873       0.02179781
Li       0.03116074       6.09829895       6.10294895       0.82651634      -0.77576816      -0.82772038
Li       2.01673059       4.05013224       6.09030701       0.13038604       0.10645138      -0.20100113
Li       2.02316243       6.07719991       4.07378979       0.03096020      -0.19099028       0.03116228
F        2.03844430       6.12089833       6.10073653      -0.19646056       0.06556699       0.10671775
F       -0.00667556       6.14564219       4.08655568      -0.07257324      -0.03422730       0.11169361
F        2.04448776       4.07568412       4.06826724      -0.05770481      -0.06468201       0.00444878
F        0.00984536       4.08432936       6.13809331      -0.11119404       0.13150318       0.01939846
Li       4.09133458       4.04793325       4.02497715      -0.03444764       0.14035986       0.22002678
Li       4.07221405       6.09970043       6.10378990       0.16950949      -0.46340663      -0.42878596
Li       6.12622456       4.10849132       6.03957745      -0.50356855       0.20871161      -0.23235471
Li       6.08104491       6.11893877       4.08207541      -0.38452622      -0.38538780       0.21482415
F        6.11838895       6.12348615       6.09172889      -0.35926744      -0.42049801      -0.43303316
F        4.07033327       6.10177314       4.08904790      -0.01227110       0.25877973      -0.14604689
F        6.13246056       4.06779418       4.05737327       0.22987951      -0.06191474       0.05372397
F        4.07441798       4.09173497       6.12743391       0.03080182      -0.13410668       0.14975236
64
Lattice="28.160000039244697 0.0 0.0 0.0 28.160000039244697 0.0 0.0 0.0 28.160000039244697" Properties=species:S:1:pos:R:3:REF_forces:R:3 config_type=LIF64_ISOLATED REF_energy=-32503.870637323456 pbc="T T T"
Li       0.07438875       0.02093341      -0.00347262       0.71925531       0.81155997       0.89364964
Li      -0.01495939       2.04365760       2.06922023       0.32284443      -0.01907476      -0.11325812
Li       2.08696810       0.02513241       2.02730946      -0.05858798       0.25759574       0.05214789
Li       2.00792321       2.06775250       0.01162364       0.03796748      -0.03577022       0.30516578
F        2.01939210       2.04417391       2.03067306       0.11193709       0.02994770       0.07271851
F       -0.02685580       2.04028997      -0.00001630       0.01521039      -0.16262947      -0.11554229
F        2.07077079      -0.00089304       0.02113738      -0.23774682      -0.03603761      -0.17992014
F       -0.00987480      -0.01033161       2.03886687      -0.02179010      -0.00933105      -0.15724944
Li       4.11862226       0.01811794      -0.00059724       0.14618598       0.40975414       0.46429032
Li       4.07314977       2.03722410       2.03225270       0.07100076      -0.13401387      -0.02304583
Li       6.13481178      -0.00830575       2.05208521      -0.52490177       0.49491062      -0.19055088
Li       6.10781978       2.03009880      -0.00804400      -0.43000183      -0.19960425       0.47066357
F        6.13635832       2.04565594       2.03776124       0.22200550       0.05345041       0.02270207
F        4.10354597       2.04764163      -0.01610832      -0.07778641       0.04706147      -0.18113165
F        6.09938647      -0.01007548       0.00029258      -0.31917700       0.40469729       0.38233024
F        4.07436691       0.00780972       2.03481228       0.01771979      -0.21929582       0.08324332
Li      -0.00710248       4.11841245      -0.01414643       0.43311570       0.09998789       0.47392630
Li      -0.00024447       6.13034148       2.00357535       0.45302555      -0.46441888      -0.13207140
Li       2.05535074       4.08056563       2.04910752      -0.13981119      -0.00396824      -0.06988721
Li       2.02835487       6.06422631       0.03459665      -0.09954977      -0.31252839       0.32702401
F        2.02598235       6.11200693       2.03115209       0.06099582       0.22130436       0.03858892
F       -0.00972886       6.11491273      -0.03073062       0.41110345      -0.45465254       0.46813901
F        2.04777854       4.05819483      -0.00069403       0.02336053       0.04493234      -0.23576527
F        0.01485341       4.07784516       2.03839586      -0.33130335       0.02120106       0.05940225
Li       4.09857924       4.04270566       0.04522422      -0.00682474       0.11146786       0.13187497
Li       4.09122346       6.10549859       2.05513886      -0.01931541      -0.21538054      -0.05626705
Li       6.11462638       4.06345668       2.05127754      -0.23774322       0.02020347      -0.04994214
Li       6.12335981       6.09446925       0.04197990      -0.91577964      -0.79391603       0.76365003
F        6.11706940       6.10224610       2.08308229       0.10164625       0.10463027      -0.23347494
F        4.09486222       6.15716157      -0.01039678       0.12659469      -0.03204186       0.06887394
F        6.10048750       4.10009206      -0.01015621       0.16707491       0.10547539      -0.01596167
F        4.09134223       4.09493734       2.03670346      -0.06084593      -0.11629614       0.02438151
Li       0.02386406       0.03004474       4.03751480       0.39459183       0.35477007       0.27521680
Li      -0.00950134       2.05834850       6.13995914       0.40482405      -0.30964412      -0.46461274
Li       2.02273339       0.02764484       6.11913483      -0.26004523       0.35933712      -0.44014895
Li       2.02821011       2.06527469       4.12497565      -0.02855287      -0.13860611      -0.10377178
F        2.03537686       2.05682117       6.12544432       0.07062769      -0.00983910       0.22074412
F       -0.03428149       2.03926747       4.09670817      -0.17757453       0.13023717      -0.08292708
F        2.03098403       0.00487360       4.08563094       0.10834140      -0.16857746       0.00203374
F       -0.00525060       0.01262443       6.13250736       0.44919718       0.45454507      -0.36867974
Li       4.10012566       0.00749819       4.12640077      -0.02499369       0.27006379      -0.11174580
Li       4.08299896       2.02995940       6.09987778       0.04952433       0.06052017      -0.19100803
Li       6.13804408      -0.02609330       6.13961171      -0.90320052       0.90385152      -0.88891958
Li       6.11296860       2.08983768       4.11417220      -0.26954109      -0.21379417      -0.09180792
F        6.12018088       2.02228724       6.12856123       0.10432714      -0.10407414      -0.00559395
F        4.09370968       2.04028035       4.08067202      -0.06363146       0.04795133       0.02744344
F        6.10869478      -0.01199844       4.07522011       0.13558635      -0.09812075       0.20463924
F        4.09574158      -0.02325653       6.14235590       0.11028130      -0.00823601       0.03390668
Li      -0.00035761       4.06723405       4.06836330       0.27407805       0.05333445      -0.02154096
Li       0.02762847       6.09614634       6.10806357       0.82958520      -0.76304968      -0.84238313
Li       2.01194972       4.05866502       6.10448421       0.13984590       0.09221030      -0.23868193
Li       2.02319351       6.07550575       4.07544671       0.02713671      -0.18519913       0.02419074
F        2.04184774       6.12252952       6.10263920      -0.21553455       0.04892295       0.11341239
F       -0.00558020       6.14430937       4.08572470      -0.07347287      -0.03974463       0.13149676
F        2.04235129       4.07372359       4.06828110      -0.04416281      -0.05496530       0.02422751
F        0.01179376       4.08273052       6.13596317      -0.10924232       0.14586202       0.04033212
Li       4.09344605       4.04721402       4.03078943      -0.04724402       0.14304230       0.19403524
Li       4.07210495       6.09874270       6.09988660       0.17669135      -0.44771005      -0.41921554
Li       6.12554205       4.10752178       6.02814620      -0.48623649       0.20568825      -0.19194056
Li       6.07964770       6.11188504       4.08932161      -0.37540909      -0.35938829       0.18256169
F        6.11932265       6.12396756       6.08889076      -0.36318066      -0.42645423      -0.43190702
F        4.07053331       6.10302535       4.08891286      -0.03081313       0.24027730      -0.13864031
F        6.13086243       4.06793487       4.05811813       0.22709140      -0.06647587       0.06380115
F        4.07544258       4.09392987       6.12743637       0.01122749      -0.14595381       0.14677811
64
Lattice="28.160000039244697 0.0 0.0 0.0 28.160000039244697 0.0 0.0 0.0 28.160000039244697" Properties=species:S:1:pos:R:3:REF_forces:R:3 config_type=LIF64_ISOLATED REF_energy=-32503.86230029967 pbc="T T T"
Li       0.07093709       0.02360834       0.00030893       0.71941652       0.81202328       0.89497401
Li      -0.00860469       2.04233739       2.06355022       0.30596359      -0.01411716      -0.09301120
Li       2.09246246       0.02390848       2.03123988      -0.07503096       0.26805704       0.03919930
Li       2.01375621       2.06938323       0.00795278       0.02317567      -0.04500253       0.31426054
F        2.02013838       2.04516169       2.02834362       0.12079557       0.04241446       0.08073392
F       -0.02924049       2.04263570      -0.00186670       0.03272423      -0.15697459      -0.11566056
F        2.07196593       0.00435076       0.02560004      -0.23179781      -0.05127345      -0.19515496
F       -0.01557908      -0.01243867       2.03382085      -0.00275082      -0.00830363      -0.14375475
Li       4.11981730       0.01650525      -0.00142889       0.12786430       0.42212655       0.47433228
Li       4.07205375       2.03886681       2.03017536       0.08168009      -0.14781298      -0.02460443
Li       6.13680926      -0.01424043       2.04534679      -0.52934335       0.51526579      -0.17315351
Li       6.10902664       2.02956816      -0.01723867      -0.43948869      -0.19987396       0.49963759
F        6.13274825       2.03865828       2.03618963       0.23056959       0.08352794       0.02930698
F        4.10162053       2.04791153      -0.01771679      -0.07181940       0.06089786      -0.19410415
F        6.09463130      -0.00646750       0.00704860      -0.29938902       0.37753616       0.34839502
F        4.07233067       0.01504568       2.03620524       0.02481449      -0.24629523       0.08744039
Li      -0.00191509       4.12529558      -0.01607646       0.41793616       0.08599646       0.48015969
Li      -0.00155276       6.13015788       2.00337216       0.44755938      -0.45996213      -0.13096788
Li       2.05986832       4.08561665       2.04994673      -0.17168824      -0.02818572      -0.06929457
Li       2.03253623       6.05650312       0.03356935      -0.10663522      -0.28288151       0.32576443
F        2.02343239       6.10907830       2.03352030       0.07803607       0.21680262       0.04263609
F       -0.00458729       6.12096025      -0.02999902       0.40674543      -0.46636906       0.46481611
F        2.04883461       4.06365866      -0.00141670       0.02709711       0.02758665      -0.23784093
F        0.01363144       4.07836353       2.04008976      -0.31820461       0.03785898       0.04334700
Li       4.10365432       4.04219796       0.04537868      -0.01565596       0.11104492       0.12527032
Li       4.08966195       6.09426917       2.05725548      -0.00742226      -0.17438584      -0.05625651
Li       6.11658041       4.06344086       2.04825866      -0.23363512       0.00525456      -0.04527353
Li       6.12464704       6.10490231       0.04138219      -0.92210609      -0.80911665       0.77468495
F        6.11907452       6.10218367       2.08601512       0.09958448       0.09015290      -0.25221314
F        4.09409342       6.15621367      -0.00862260       0.14235324      -0.03548842       0.06800542
F        6.09993255       4.09585524      -0.00831899       0.16968741       0.12139104      -0.02019756
F        4.08763423       4.09574912       2.03708992      -0.04496319      -0.12058808       0.02982325
Li       0.02845173       0.02087495       4.03909739       0.37880089       0.38145735       0.26831878
Li      -0.01523853       2.05421591       6.13714269       0.40785564      -0.29382104      -0.47847124
Li       2.02002980       0.03573256       6.12523143      -0.24950036       0.33888220      -0.44953965
Li       2.03891123       2.06364510       4.12498805      -0.07427171      -0.13982327      -0.10265412
F        2.03429342       2.04891774       6.12857569       0.07773525       0.01916217       0.21719085
F       -0.03367723       2.04321790       4.09551344      -0.17230891       0.10318403      -0.07801807
F        2.03057016       0.00976963       4.08633432       0.10455134      -0.18040505      -0.01490237
F       -0.01244122       0.00458429       6.12977309       0.46015779       0.46811175      -0.37278759
Li       4.10442347       0.01301439       4.12265909      -0.02992224       0.25260780      -0.09254043
Li       4.08436003       2.03425410       6.09819519       0.05271790       0.04011204      -0.17033816
Li       6.13438936      -0.02389604       6.14374420      -0.90236131       0.89345423      -0.88427025
Li       6.12091014       2.08493987       4.11786344      -0.28259689      -0.21630459      -0.10219955
F        6.11962509       2.01986984       6.13746516       0.10264024      -0.10459968      -0.03771423
F        4.09326064       2.03853202       4.08601069      -0.05512548       0.07111877       0.01421100
F        6.11329333      -0.01790696       4.07550739       0.12468745      -0.07644712       0.20398258
F        4.09287373      -0.02414125       6.14062188       0.12385055      -0.00291023       0.03703237
Li      -0.00687634       4.06929943       4.06628342       0.28067782       0.03724860      -0.00830929
Li       0.02348308       6.10525354       6.10238691       0.84640176      -0.78184059      -0.84209285
Li       2.01569319       4.05406405       6.09922759       0.10599707       0.11446654      -0.22368623
Li       2.02374397       6.07201818       4.06549302       0.01590227      -0.16726055       0.06735853
F        2.04086873       6.12547309       6.09879833      -0.19796209       0.04893401       0.11120484
F       -0.01169018       6.14712051       4.08771921      -0.06671858      -0.03862851       0.11106214
F        2.04240894       4.07508196       4.07263338      -0.01230144      -0.06237702      -0.00019489
F        0.01432088       4.08381254       6.13124581      -0.11932181       0.13744655       0.05055920
Li       4.09043786       4.04845666       4.03024790      -0.03547582       0.13677086       0.20030128
Li       4.07717843       6.09958986       6.10245488       0.14978141      -0.44121956      -0.42678796
Li       6.12234216       4.11324074       6.01969970      -0.47186711       0.18683332      -0.16004372
Li       6.08123597       6.10512226       4.09077405      -0.37273668      -0.33620825       0.16798997
F        6.12275899       6.11903530       6.08340862      -0.35844315      -0.41956418      -0.42496607
F        4.07422097       6.10622969       4.08835626      -0.03499426       0.20902709      -0.14314951
F        6.13332262       4.06173451       4.05480761       0.21710678      -0.05791127       0.06814555
F        4.07935240       4.09557929       6.13145496       0.00097111      -0.15080317       0.12401048
64
Lattice="28.160000039244697 0.0 0.0 0.0 28.160000039244697 0.0 0.0 0.0 28.160000039244697" Properties=species:S:1:pos:R:3:REF_forces:R:3 config_type=LIF64_ISOLATED REF_energy=-32503.90503278478 pbc="T T T"
Li       0.07962478       0.02646755       0.00147397       0.70361478       0.80407266       0.87449081
Li      -0.00231815       2.03669831       2.06234919       0.28628128      -0.00794497      -0.09622199
Li       2.08798141       0.02614413       2.02998413      -0.05585799       0.25289319       0.02648776
Li       2.01230926       2.07091178       0.01447747       0.02951189      -0.04605103       0.27537029
F        2.02200005       2.04555185       2.02196704       0.09602016       0.04086717       0.11590096
F       -0.02515074       2.04114353      -0.00455348       0.02255397      -0.14563011      -0.09095689
F        2.06803207       0.00907621       0.02545160      -0.22905752      -0.06790566      -0.18615815
F       -0.01542902      -0.01170507       2.03584963       0.01152163      -0.00379161      -0.13127359
Li       4.12663147       0.01754511       0.00305320       0.11639333       0.41128986       0.46491690
Li       4.06942768       2.03250181       2.02211439       0.10545457      -0.12387421      -0.01429662
Li       6.13995006      -0.01094886       2.04961697      -0.53619816       0.51425509      -0.18627180
Li       6.10706724       2.03454199      -0.02595881      -0.43920998      -0.19351974       0.52618860
F        6.12481602       2.04412949       2.03734417       0.25417103       0.05838847       0.03243292
F        4.10003369       2.04257008      -0.01621886      -0.06418476       0.07550507      -0.21338356
F        6.09407692      -0.01198894       0.00962251      -0.28604397       0.39335616       0.34415964
F        4.07247824       0.01120448       2.03077838       0.00619353      -0.24050973       0.11358440
Li      -0.00594592       4.12794909      -0.00624384       0.42775186       0.07869221       0.44927894
Li      -0.00126973       6.12277238       1.99774907       0.44709170      -0.43712919      -0.12524075
Li       2.06199496       4.08322527       2.04906812      -0.15656039      -0.01218112      -0.07398761
Li       2.03017172       6.05702014       0.03628883      -0.09360255      -0.28190963       0.31342647
F        2.02166186       6.11060600       2.03595952       0.08158753       0.21101506       0.03944792
F       -0.00510324       6.12166316      -0.02799566       0.39955997      -0.46538176       0.46763199
F        2.05137609       4.06716249      -0.00539177       0.01395106       0.01668749      -0.21685044
F        0.01359556       4.08331342       2.03618019      -0.31617036       0.00997408       0.05990388
Li       4.10142821       4.04361334       0.03925824      -0.00412148       0.11542402       0.14373392
Li       4.08546885       6.09921209       2.06386712      -0.01260946      -0.19712391      -0.08679864
Li       6.11240905       4.06762860       2.06272081      -0.23744600      -0.02219865      -0.09671796
Li       6.12870514       6.10517259       0.04918078      -0.93129753      -0.82067582       0.76131316
F        6.12020836       6.09868455       2.08468824       0.09410855       0.10194347      -0.22940437
F        4.09176006       6.15641778      -0.01025066       0.14815699      -0.02931186       0.08339707
F        6.10035118       4.09459740      -0.00772872       0.16723252       0.12367340      -0.03587589
F        4.08894076       4.09039249       2.03294296      -0.06478846      -0.08246736       0.06055616
Li       0.03281325       0.01688123       4.04666982       0.36229209       0.37847693       0.25270884
Li      -0.01060541       2.04897222       6.12873986       0.38894903      -0.28643683      -0.45069330
Li       2.02448767       0.03852581       6.12090059      -0.24656237       0.32408653      -0.42347175
Li       2.03266217       2.06475501       4.12745999      -0.04601555      -0.12970161      -0.11652934
F        2.03726574       2.05093550       6.12855028       0.06518981       0.01112439       0.20676863
F       -0.02975926       2.04019909       4.09658080      -0.16090298       0.11612593      -0.08211358
F        2.03391250       0.00822209       4.08672680       0.09851490      -0.17170624      -0.00426649
F       -0.01128960       0.00738945       6.12974027       0.46899184       0.46364780      -0.38426808
Li       4.09862831       0.01505421       4.12303440      -0.00742252       0.25217148      -0.10514989
Li       4.07795765       2.03274650       6.09836770       0.08077352       0.04563888      -0.16372528
Li       6.13307649      -0.03207765       6.14153674      -0.89712243       0.91128226      -0.87484176
Li       6.11934660       2.08509437       4.11924802      -0.28364230      -0.22684226      -0.10694221
F        6.12310910       2.01761138       6.14058781       0.08366627      -0.09488862      -0.05436649
F        4.09205170       2.03798512       4.08318874      -0.07011604       0.06546183       0.04423737
F        6.11283056      -0.01346778       4.07271718       0.11845741      -0.08988602       0.21482493
F        4.09608975      -0.02470186       6.14868352       0.10539852      -0.00123027       0.00728136
Li      -0.00617857       4.07318245       4.07226742       0.27331084       0.03542003      -0.02728429
Li       0.03016562       6.10481478       6.09684888       0.82205316      -0.76490011      -0.82521999
Li       2.01104514       4.05788623       6.09996555       0.12657901       0.10810512      -0.21995762
Li       2.01715772       6.07210819       4.07021963       0.02766996      -0.16059162       0.04028944
F        2.04420033       6.12972520       6.09473196      -0.21349258       0.03732265       0.11405285
F       -0.01079352       6.14597377       4.08964987      -0.06895750      -0.04489712       0.11886878
F        2.04183381       4.07707686       4.07100711      -0.02421671      -0.07724931       0.01470645
F        0.01203674       4.08405589       6.13029605      -0.09743864       0.13781550       0.04037738
Li       4.09145881       4.04941250       4.03420546      -0.04891190       0.11951644       0.17833943
Li       4.07753945       6.10152787       6.09714238       0.15931584      -0.44243697      -0.40532516
Li       6.12080225       4.10787630       6.01999296      -0.46452378       0.19338450      -0.14008501
Li       6.07606353       6.10094155       4.08794094      -0.35278904      -0.32489488       0.18617281
F        6.12104401       6.11734172       6.08899408      -0.36970895      -0.41877974      -0.45213029
F        4.07171320       6.10542010       4.08411819      -0.01603134       0.20919061      -0.13174847
F        6.13245078       4.06138152       4.05775522       0.21024810      -0.04587979       0.07254213
F        4.07848597       4.09732057       6.13308014      -0.00756239      -0.15887978       0.10816580
64
Lattice="28.160000039244697 0.0 0.0 0.0 28.160000039244697 0.0 0.0 0.0 28.160000039244697" Properties=species:S:1:pos:R:3:REF_forces:R:3 config_type=LIF64_ISOLATED REF_energy=-32503.94621204409 pbc="T T T"
Li       0.08373536       0.02553486      -0.00176414       0.68026402       0.80299074       0.88955490
Li       0.00204503       2.05393914       2.05886786       0.24246454      -0.05442357      -0.08417869
Li       2.08861528       0.03299299       2.03452095      -0.07845413       0.23171424       0.01644786
Li       2.00832421       2.06804867       0.01698357       0.03039970      -0.04573350       0.25478630
F        2.02079087       2.04298483       2.02232810       0.10309507       0.05929915       0.11166712
F       -0.02521983       2.03687959      -0.00477513       0.03798702      -0.12158798      -0.10195504
F        2.06382891       0.01065853       0.02644772      -0.20274563      -0.06447247      -0.18265862
F       -0.01930674      -0.00918947       2.03143499       0.03684776      -0.01192735      -0.10620199
Li       4.11248045       0.02891820       0.00921332       0.15575332       0.38802600       0.44002734
Li       4.06393058       2.03482614       2.02433130       0.12190217      -0.12692379      -0.00527976
Li       6.14135633      -0.01381514       2.04852495      -0.53442488       0.51082112      -0.19512025
Li       6.10844632       2.03799111      -0.01852210      -0.44044051      -0.21568676       0.50451652
F        6.12415545       2.04434542       2.04046134       0.24768388       0.06380912       0.02355182
F        4.09947585       2.04249470      -0.02136814      -0.07344613       0.08927796      -0.17955376
F        6.09181621      -0.00972321       0.00936878      -0.28609410       0.39927561       0.35938469
F        4.07457732       0.01499484       2.03049384      -0.01297456      -0.24570105       0.12331088
Li       0.00783023       4.12217557      -0.00945752       0.39121520       0.09182052       0.44692612
Li       0.00865032       6.12313487       1.99473160       0.41204396      -0.43356795      -0.14033030
Li       2.05624934       4.08154842       2.05048416      -0.13575476      -0.00301642      -0.08029504
Li       2.03646188       6.05541450       0.03832653      -0.10840362      -0.27584337       0.29761548
F        2.02019715       6.11340762       2.03548025       0.10152695       0.20194010       0.05188409
F       -0.00419855       6.12223828      -0.02103405       0.41767674      -0.46598982       0.45386759
F        2.04710426       4.06167826      -0.00550282       0.02827262       0.03580544      -0.20513701
F        0.01282658       4.07917225       2.03243775      -0.27829158       0.03004026       0.07916787
Li       4.10567383       4.04195538       0.04704493      -0.01909327       0.10702860       0.11467943
Li       4.08563472       6.10929977       2.06286980      -0.01719708      -0.22464217      -0.07196569
Li       6.11204462       4.07021715       2.06199969      -0.23545829      -0.03168165      -0.07525259
Li       6.12321667       6.10195353       0.05339761      -0.91278070      -0.80910302       0.73804699
F        6.11997453       6.09659983       2.08705333       0.08109131       0.10742712      -0.23857061
F        4.09085330       6.15798376      -0.01766641       0.14692723      -0.03632815       0.11717211
F        6.10086459       4.09566333      -0.00737492       0.16059650       0.12307717      -0.01699448
F        4.08629775       4.09144015       2.03273706      -0.06133444      -0.07566757       0.05342932
Li       0.03377692       0.01399584       4.04655198       0.34105246       0.39482631       0.23046032
Li      -0.00122234       2.04396359       6.12784538       0.35722830      -0.27776013      -0.45412315
Li       2.01675991       0.04717788       6.11354395      -0.21582920       0.30106152      -0.39397785
Li       2.03035447       2.06668087       4.11759262      -0.03936770      -0.14641713      -0.09237434
F        2.03581278       2.04771589       6.13028365       0.05357048       0.04061417       0.19376759
F       -0.03364843       2.04279693       4.09520326      -0.12266810       0.11460358      -0.07040143
F        2.03665446       0.01042248       4.08780616       0.08009449      -0.18564393      -0.01855951
F       -0.01054402       0.00798443       6.12941051       0.47219287       0.46205501      -0.39211714
Li       4.09571114       0.00233378       4.12269997       0.00728959       0.28398066      -0.07564905
Li       4.07387247       2.04204872       6.09242427       0.10384531       0.00412174      -0.15044476
Li       6.14569193      -0.03116564       6.14073812      -0.92477747       0.91960955      -0.86973221
Li       6.11855199       2.07716872       4.10929271      -0.28835899      -0.21152646      -0.07799776
F        6.12051187       2.01771099       6.13943708       0.10332827      -0.08628596      -0.06155967
F        4.08099725       2.03595363       4.08235990      -0.03240773       0.07058270       0.03126513
F        6.12274928      -0.01887510       4.07426816       0.09287030      -0.07658879       0.19742421
F        4.10085435      -0.02139751       6.15338905       0.09514547      -0.01250893      -0.02541253
Li       0.00794804       4.08574020       4.08192984       0.22062328      -0.00522808      -0.04372855
Li       0.03066575       6.10722671       6.09687534       0.81411848      -0.76759771      -0.80766089
Li       2.01020816       4.05295784       6.09801419       0.13006671       0.11239886      -0.19892368
Li       2.01229972       6.07747036       4.07700566       0.04716380      -0.16703583       0.02608230
F        2.04471694       6.12660192       6.09631688      -0.21705613       0.04483978       0.09453741
F       -0.00909354       6.14764864       4.08994569      -0.04613716      -0.05112047       0.12535439
F        2.04466359       4.07092324       4.06897834      -0.04713758      -0.03073857       0.02278460
F        0.01368157       4.08650155       6.13006664      -0.08107614       0.14336317       0.03377607
Li       4.08888719       4.05360030       4.03952869      -0.03037347       0.10143079       0.16566312
Li       4.07568928       6.09876080       6.09319146       0.17137225      -0.43897576      -0.38687132
Li       6.12907020       4.10694936       6.02149265      -0.47594051       0.17726496      -0.14940166
Li       6.07620957       6.09860545       4.08956506      -0.34723700      -0.32707852       0.19208326
F        6.12000313       6.11739604       6.08752031      -0.36032031      -0.41971305      -0.45225653
F        4.07399599       6.10447667       4.08568041      -0.03790886       0.21702682      -0.14335468
F        6.13312954       4.05496103       4.06008123       0.20462433      -0.02160832       0.05522832
F        4.07967078       4.09840908       6.13148081      -0.02684515      -0.16200830       0.10357766
64
Lattice="28.160000039244697 0.0 0.0 0.0 28.160000039244697 0.0 0.0 0.0 28.160000039244697" Properties=species:S:1:pos:R:3:REF_forces:R:3 config_type=LIF64_ISOLATED REF_energy=-32503.94744526401 pbc="T T T"
Li       0.08515509       0.02169645      -0.00566113       0.67371182       0.80794577       0.89847663
Li       0.00850407       2.05370493       2.05547723       0.22174582      -0.04771633      -0.08120649
Li       2.09045634       0.03559659       2.03789730      -0.05801026       0.22254389       0.00987535
Li       2.00617492       2.06601622       0.01032088       0.03528068      -0.04005470       0.26974317
F        2.01341752       2.04618787       2.02484249       0.13447384       0.03623687       0.09851413
F       -0.02718969       2.03663373      -0.00939900       0.05049492      -0.12785865      -0.09799785
F        2.06941744       0.01477868       0.02980970      -0.22907758      -0.06757759      -0.19002304
F       -0.02647565      -0.01072742       2.03271883       0.06426858      -0.00387979      -0.11954396
Li       4.11236510       0.03047295       0.00895709       0.16840700       0.38405931       0.44798747
Li       4.06167713       2.04590425       2.01870086       0.14576535      -0.15978661       0.01170443
Li       6.14212455      -0.01563605       2.05147120      -0.54083566       0.52639172      -0.19720361
Li       6.10475128       2.03754649      -0.02145280      -0.43167022      -0.21476939       0.51503207
F        6.12469653       2.04214909       2.04617249       0.25016294       0.07271594       0.00273617
F        4.10190880       2.04367705      -0.02196034      -0.10133540       0.09245944      -0.18060611
F        6.09088751      -0.00751767       0.00569686      -0.28526030       0.39674487       0.35931167
F        4.07881089       0.01381059       2.03114497      -0.02759205      -0.23861046       0.12054309
Li       0.00684675       4.11735633      -0.00836132       0.39182070       0.09758545       0.44469595
Li       0.00415981       6.12312974       1.98604112       0.40974206      -0.43385823      -0.11614341
Li       2.06251993       4.08272184       2.05263216      -0.15778243      -0.01001033      -0.07716421
Li       2.03144929       6.05707868       0.04864779      -0.10032496      -0.27324785       0.27092640
F        2.02211357       6.11386475       2.03427621       0.09887254       0.20187762       0.05344809
F       -0.00673169       6.12420794      -0.02100056       0.42190826      -0.47372062       0.46248747
F        2.04651035       4.06025879      -0.00385512       0.02904601       0.03757513      -0.21051833
F        0.01675413       4.08006022       2.03302184      -0.29505826       0.02991299       0.05975501
Li       4.09822121       4.04521190       0.03908221       0.00255233       0.10477143       0.13226577
Li       4.08681588       6.11377337       2.06418396      -0.01373638      -0.23200658      -0.06684225
Li       6.11633164       4.07914148       2.06585586      -0.24477596      -0.06615680      -0.07847238
Li       6.12023411       6.09489248       0.05874333      -0.90873790      -0.79515608       0.72109159
F        6.11820909       6.09742813       2.08936262       0.08649474       0.10543143      -0.24865704
F        4.08944463       6.15737740      -0.01562607       0.14394681      -0.03840405       0.12006383
F        6.09488089       4.09313442      -0.00894905       0.17422643       0.13847756      -0.01396623
F        4.08994688       4.09050610       2.03326721      -0.08627722      -0.06700835       0.05546795
Li       0.03523387       0.01873559       4.03807868       0.32368826       0.37291177       0.24025776
Li       0.00673004       2.03840285       6.12323055       0.33572102      -0.25949399      -0.43071429
Li       2.01582579       0.04244584       6.11778738      -0.20894070       0.30265767      -0.39476744
Li       2.02370193       2.05224569       4.12010177      -0.01465837      -0.10240395      -0.09650173
F        2.03128144       2.04981975       6.13442948       0.07111517       0.00792620       0.16640591
F       -0.03410933       2.04215717       4.09202073      -0.11126835       0.09441554      -0.06762464
F        2.04278285       0.00772078       4.08618687       0.04816833      -0.16961208      -0.01755524
F       -0.00856001       0.00725566       6.12935021       0.48299458       0.46136775      -0.40091134
Li       4.10064214      -0.00246340       4.12710148       0.01116142       0.29910183      -0.08068790
Li       4.07177248       2.04552417       6.09834161       0.11293262       0.00376718      -0.16503191
Li       6.14910571      -0.02449849       6.14070987      -0.92581620       0.91342142      -0.87379018
Li       6.11620653       2.07534022       4.10647967      -0.28385390      -0.21314651      -0.08050047
F        6.11581639       2.01747414       6.13296859       0.11989877      -0.07788129      -0.03254425
F        4.08591655       2.03549219       4.08130452      -0.07776173       0.08038374       0.03577433
F        6.12481341      -0.01642869       4.08220526       0.09829533      -0.09707097       0.17933316
F        4.10146170      -0.02271024       6.15168954       0.07859657      -0.01002884      -0.01102078
Li       0.00321603       4.08207115       4.07838518       0.23108690       0.01148383      -0.03143919
Li       0.02740825       6.10117486       6.09718695       0.83136621      -0.76047472      -0.81248968
Li       2.01301490       4.05040780       6.09006010       0.12423622       0.13981479      -0.17837362
Li       2.01000751       6.07098284       4.06709479       0.03908488      -0.14674186       0.07224774
F        2.04472208       6.12935441       6.09551697      -0.21803700       0.04098081       0.08820864
F       -0.01072688       6.14678612       4.09141984      -0.05306808      -0.05408958       0.10286341
F        2.04086541       4.07456404       4.06892090      -0.01806380      -0.06518801       0.00667690
F        0.01532800       4.08362531       6.12612187      -0.09363983       0.14072985       0.03416379
Li       4.08693994       4.04446791       4.03811977      -0.02278640       0.12071098       0.18360119
Li       4.07887587       6.11007284       6.09157670       0.15154005      -0.46633435      -0.37987098
Li       6.13285950       4.10629720       6.01386787      -0.48762128       0.17943935      -0.12941622
Li       6.07428908       6.09822834       4.09171680      -0.34383285      -0.32361139       0.19910134
F        6.12045225       6.11779810       6.08919416      -0.35435818      -0.41709515      -0.45780240
F        4.07791134       6.10619371       4.09100067      -0.04615027       0.20922686      -0.17805532
F        6.13939110       4.05540129       4.05985038       0.19230103      -0.01172680       0.05217205
F        4.07627449       4.09768861       6.13473633      -0.01477690      -0.16834761       0.08250953
64
Lattice="28.160000039244697 0.0 0.0 0.0 28.160000039244697 0.0 0.0 0.0 28.160000039244697" Properties=species:S:1:pos:R:3:REF_forces:R:3 config_type=LIF64_ISOLATED REF_energy=-32503.959749299396 pbc="T T T"
Li       0.08030320       0.01811431      -0.00209714       0.69693299       0.81058552       0.88949062
Li       0.00378285       2.05079195       2.05828333       0.23226806      -0.03743706      -0.08968393
Li       2.09496635       0.04124006       2.03882601      -0.04717949       0.18879611       0.01634733
Li       2.00437239       2.06780575       0.01728843       0.02752289      -0.05384404       0.24063854
F        2.01802606       2.04599733       2.02477902       0.11564693       0.04659430       0.09703523
F       -0.02592691       2.03562161      -0.01285110       0.04302613      -0.14392316      -0.07099176
F        2.07528236       0.01455763       0.03095372      -0.26017430      -0.05837561      -0.18096350
F       -0.02558472      -0.01414127       2.03927976       0.04949939       0.01953781      -0.13685776
Li       4.11363562       0.03436300       0.00748784       0.17616119       0.35607516       0.44891693
Li       4.06802892       2.04593905       2.00583516       0.14599624      -0.17967177       0.05614955
Li       6.14561828      -0.01313048       2.05850212      -0.54995537       0.51989249      -0.21494860
Li       6.09535322       2.04636085      -0.02280812      -0.39646668      -0.24424606       0.50776228
F        6.12557966       2.03621709       2.04637564       0.23428586       0.10450506       0.00226360
F        4.10233340       2.04106387      -0.01986278      -0.11240066       0.13388017      -0.17940824
F        6.09058423      -0.00458190       0.00202282      -0.28732412       0.40147647       0.35858276
F        4.08227671       0.00964304       2.03040127      -0.02793709      -0.21424694       0.12473681
Li       0.00303835       4.11676844      -0.00503225       0.39844206       0.09869539       0.43638074
Li       0.00264737       6.12266805       1.97943504       0.42233583      -0.42505452      -0.09759908
Li       2.07274407       4.07780331       2.05093694      -0.18986697       0.02264011      -0.06805299
Li       2.03042085       6.05669467       0.05248649      -0.09622456      -0.25950401       0.27550887
F        2.02157159       6.11278594       2.03793560       0.09608598       0.19287490       0.04791328
F       -0.00491965       6.12521452      -0.01751667       0.40823565      -0.47069803       0.45395963
F        2.04175027       4.06138232      -0.00549378       0.05536974       0.02309571      -0.19998606
F        0.01297640       4.07862472       2.02900688      -0.29014488       0.01443520       0.07955456
Li       4.09276064       4.05107560       0.03546119       0.00623441       0.11476890       0.13276791
Li       4.09019478       6.11070601       2.07333110      -0.02213206      -0.20658043      -0.09299397
Li       6.10596601       4.07761766       2.06530528      -0.21448503      -0.05395974      -0.06751408
Li       6.12404174       6.09333592       0.05020306      -0.92724419      -0.78973979       0.74783955
F        6.11176706       6.09613311       2.09168050       0.10534555       0.10751865      -0.25756926
F        4.08370547       6.16220125      -0.00954839       0.15847843      -0.05761071       0.08968316
F        6.09182952       4.09189268      -0.00956169       0.16506302       0.14607594      -0.02426144
F        4.09117047       4.09972494       2.02897365      -0.09511282      -0.12655818       0.06343683
Li       0.02641561       0.01734113       4.03898925       0.35799089       0.36462537       0.24141347
Li      -0.00153965       2.03659515       6.12066016       0.37006119      -0.24781038      -0.41811305
Li       2.00829451       0.04632836       6.11424142      -0.17848572       0.30374704      -0.39019216
Li       2.01815784       2.05194801       4.11423910       0.01346821      -0.10816014      -0.06230837
F        2.03309489       2.04918768       6.13750167       0.05414615       0.01855848       0.15206044
F       -0.03022985       2.04262610       4.09506532      -0.13055573       0.09427875      -0.09200204
F        2.04740272       0.00281260       4.08599161       0.01490186      -0.14619370      -0.02268561
F       -0.00827298       0.01333248       6.12889808       0.45563213       0.44891204      -0.40582986
Li       4.10316015       0.00006124       4.12738465       0.00103718       0.29976517      -0.06892793
Li       4.06882161       2.05110193       6.09571946       0.11928170      -0.02935968      -0.16165271
Li       6.14616104      -0.03440426       6.13570321      -0.93321300       0.93404398      -0.86712665
Li       6.12148395       2.07679388       4.10825922      -0.29770392      -0.21738729      -0.06534459
F        6.11498520       2.01330560       6.12908183       0.12444319      -0.04681285      -0.02298103
F        4.08702870       2.03704010       4.08420120      -0.08478778       0.09633872      -0.00414847
F        6.12217879      -0.01433772       4.08973157       0.11983346      -0.11655890       0.15001873
F        4.10240536      -0.01879578       6.14933162       0.07248737      -0.03208788      -0.00082250
Li       0.00349577       4.08549546       4.07518375       0.24623326       0.02037831      -0.02886655
Li       0.02858215       6.08790738       6.09806820       0.82621269      -0.73139915      -0.81477102
Li       2.01767911       4.05387420       6.09305938       0.11891481       0.11815787      -0.18349886
Li       2.01386127       6.07529418       4.07124612       0.01657076      -0.15249264       0.05237466
F        2.04491676       6.12609280       6.08980554      -0.20838663       0.04877768       0.10612048
F       -0.00879432       6.15176888       4.09172113      -0.06235079      -0.08393546       0.10375610
F        2.04505743       4.07356282       4.06975565      -0.03760470      -0.06968949      -0.01420637
F        0.02028859       4.08467869       6.12686698      -0.11631208       0.13677163       0.02983431
Li       4.07744907       4.04395718       4.03821188      -0.00124647       0.10738315       0.19018424
Li       4.07924739       6.11374054       6.08055332       0.15517533      -0.47024526      -0.35357991
Li       6.12158950       4.10370661       6.01188566      -0.46184803       0.17576987      -0.12267427
Li       6.07567434       6.09208848       4.09280447      -0.33158052      -0.32027769       0.19533056
F        6.12013143       6.11607262       6.08489947      -0.36275103      -0.40744298      -0.45436844
F        4.07501733       6.10221784       4.09226921      -0.03740955       0.21956115      -0.17881431
F        6.14413548       4.05672080       4.05948894       0.16851087      -0.02232772       0.03950140
F        4.07570230       4.09869068       6.13355639      -0.01094724      -0.16488587       0.08418280
64
Lattice="28.160000039244697 0.0 0.0 0.0 28.160000039244697 0.0 0.0 0.0 28.160000039244697" Properties=species:S:1:pos:R:3:REF_forces:R:3 config_type=LIF64_ISOLATED REF_energy=-32503.93868319841 pbc="T T T"
Li       0.08985964       0.02273616      -0.00801225       0.67506987       0.79430041       0.89537691
Li       0.00183092       2.04446382       2.05352897       0.24568999      -0.01228499      -0.06519109
Li       2.09065226       0.03398953       2.03993612      -0.01222225       0.22309565       0.00763258
Li       1.99902755       2.07157374       0.01331667       0.04600655      -0.06474269       0.27652343
F        2.02163437       2.04526212       2.02084580       0.09625490       0.04972154       0.09495752
F       -0.02463239       2.03327543      -0.01192163       0.04512337      -0.14289343      -0.09119060
F        2.07372120       0.01153379       0.03689426      -0.26003855      -0.05697565      -0.21776601
F       -0.02842242      -0.01124342       2.04504443       0.06245775       0.01224848      -0.15487965
Li       4.11410589       0.04012783      -0.01020175       0.19044007       0.36044861       0.50668319
Li       4.06665624       2.05763482       2.01358346       0.14811534      -0.23443833       0.04834548
Li       6.14352815      -0.01919985       2.05807863      -0.55266557       0.54901589      -0.20853575
Li       6.09733777       2.05116849      -0.01735935      -0.38388858      -0.26074457       0.51786620
F        6.13182814       2.03428918       2.04628259       0.21562480       0.12544695      -0.00882017
F        4.10710564       2.04108182      -0.02111866      -0.13281728       0.14424686      -0.20258699
F        6.09574389      -0.00174046       0.00304412      -0.30404298       0.38840139       0.33923084
F        4.08371793       0.01382748       2.03308519      -0.03958496      -0.24079975       0.11321519
Li       0.00534757       4.11830671      -0.00752889       0.38556520       0.09514084       0.45234421
Li       0.00722363       6.11984581       1.97707948       0.40739130      -0.42872734      -0.08484949
Li       2.07587394       4.08130999       2.04674152      -0.20800533      -0.00547414      -0.03063135
Li       2.02255780       6.05343917       0.05488689      -0.07192224      -0.23974817       0.26541601
F        2.02060391       6.11221894       2.03773851       0.09428852       0.19226324       0.03850227
F       -0.00384063       6.12537382      -0.01769125       0.40938827      -0.47583046       0.44869273
F        2.04018634       4.06073226      -0.00608763       0.05620509       0.02440465      -0.21308712
F        0.01448968       4.07691282       2.03026820      -0.29514799       0.02779594       0.05023061
Li       4.09070107       4.04530575       0.02977216       0.01931696       0.13161837       0.14075119
Li       4.09154841       6.10730733       2.07139856      -0.01487177      -0.19853724      -0.09104713
Li       6.09825466       4.07574805       2.05818502      -0.17949977      -0.05452770      -0.04172875
Li       6.12531738       6.09065402       0.04818531      -0.92844232      -0.78438033       0.75493939
F        6.11433425       6.09030746       2.09091521       0.09796006       0.13124402      -0.25633281
F        4.08430155       6.16354879      -0.00866218       0.14624126      -0.06473138       0.08718225
F        6.09090849       4.09688195      -0.00771380       0.16379727       0.12700067      -0.04332155
F        4.09437863       4.09994834       2.02625033      -0.12291827      -0.13083624       0.05296293
Li       0.03125992       0.01993212       4.03438697       0.33479208       0.36338481       0.26050392
Li      -0.00444846       2.03667231       6.12360569       0.36823699      -0.25611761      -0.42701627
Li       2.01642414       0.04846086       6.11741221      -0.19492639       0.29817366      -0.38960543
Li       2.01008173       2.04096991       4.12155692       0.03033825      -0.05549932      -0.08980735
F        2.03066158       2.04965140       6.13840055       0.06769483       0.01222945       0.16646453
F       -0.02842671       2.04410962       4.09328074      -0.13542952       0.08283606      -0.08110699
F        2.04804918       0.00431245       4.08614532       0.00995531      -0.16090606      -0.02074057
F       -0.00947497       0.01717605       6.12714892       0.46293175       0.44418250      -0.39817081
Li       4.09580773      -0.00756598       4.12087486       0.03764609       0.32898345      -0.07089971
Li       4.06419337       2.05086599       6.09678315       0.13456640      -0.01694563      -0.18238840
Li       6.14368838      -0.03349995       6.14194387      -0.93317726       0.93616463      -0.88970711
Li       6.12002647       2.07952669       4.11864537      -0.29555217      -0.23233799      -0.09570726
F        6.11303490       2.01315090       6.12874753       0.12512248      -0.04364525      -0.00012984
F        4.08768536       2.03848606       4.08281271      -0.10149353       0.09309682       0.00877775
F        6.11938817      -0.01315859       4.09315461       0.12246936      -0.13521123       0.15401139
F        4.10060795      -0.01829172       6.14776007       0.05379751      -0.03531950       0.01685152
Li       0.00246809       4.08886555       4.08089019       0.26165500       0.00332829      -0.04909059
Li       0.03402874       6.09015858       6.10556736       0.81950699      -0.73327374      -0.82678913
Li       2.01025183       4.05457730       6.10200807       0.14318114       0.11413667      -0.22430972
Li       2.00701686       6.07468871       4.06905358       0.03484308      -0.16936654       0.06009671
F        2.04084259       6.12846157       6.08777780      -0.20922918       0.05003110       0.12936506
F       -0.00605193       6.14699297       4.09403896      -0.07745525      -0.06941336       0.10384429
F        2.04262538       4.07397850       4.07036236      -0.03198787      -0.07201789      -0.01454704
F        0.02018318       4.08012624       6.13048636      -0.12051095       0.15303309       0.04391033
Li       4.07997087       4.04136738       4.03422572      -0.01450796       0.11410530       0.21518822
Li       4.07676246       6.11491483       6.07711182       0.15946573      -0.48135628      -0.36137446
Li       6.12135484       4.10815243       6.01304866      -0.47001643       0.17478642      -0.13982199
Li       6.07616553       6.09490180       4.09130733      -0.33347979      -0.34119850       0.19092189
F        6.12141284       6.11601729       6.08193142      -0.35661612      -0.39695647      -0.44606480
F        4.07542871       6.09699670       4.09325012      -0.04315777       0.24580595      -0.19742447
F        6.13959068       4.05520950       4.05643965       0.17903594      -0.01661627       0.05830336
F        4.07737496       4.10282780       6.12935262      -0.02656772      -0.17881637       0.11557854
64
Lattice="28.160000039244697 0.0 0.0 0.0 28.160000039244697 0.0 0.0 0.0 28.160000039244697" Properties=species:S:1:pos:R:3:REF_forces:R:3 config_type=LIF64_ISOLATED REF_energy=-32503.973382202712 pbc="T T T"
Li       0.08777809       0.02056333       0.00407118       0.67334544       0.78858511       0.87678089
Li       0.00048875       2.04821609       2.04975751       0.24370793      -0.00655863      -0.06583618
Li       2.09249944       0.04071619       2.04102233      -0.01112311       0.19403421       0.01972962
Li       1.99992387       2.06146399       0.01910816       0.04330920      -0.04101244       0.25630042
F        2.02181417       2.04398820       2.02396303       0.09682415       0.05078957       0.08418357
F       -0.02537651       2.03462536      -0.01470182       0.05994733      -0.16704817      -0.07103187
F        2.07831522       0.00638962       0.04009955      -0.28360528      -0.03781604      -0.20564069
F       -0.02997964      -0.01228810       2.04892028       0.05903510       0.02788439      -0.17934010
Li       4.11383602       0.04511940      -0.00637768       0.19347706       0.33441310       0.49442365
Li       4.07273744       2.05507574       2.01357537       0.14572601      -0.22618483       0.05689260
Li       6.13827222      -0.01948973       2.05660203      -0.53561607       0.54614551      -0.21215175
Li       6.09500336       2.05080490      -0.02257884      -0.37208079      -0.25446799       0.52980769
F        6.12869992       2.03913629       2.04596457       0.21103126       0.09992310      -0.01123444
F        4.10630306       2.03532733      -0.02041546      -0.13274811       0.16537207      -0.20178018
F        6.09924491      -0.00149653       0.00464932      -0.31533912       0.39400125       0.34270980
F        4.08290397       0.01336530       2.03478370      -0.03081416      -0.23117508       0.11401814
Li       0.01255645       4.12304268      -0.01353506       0.37354581       0.09829199       0.45300549
Li       0.00514420       6.11669265       1.98258286       0.41574995      -0.41583711      -0.12050503
Li       2.07851046       4.07773804       2.04995295      -0.21577906      -0.00118554      -0.04101295
Li       2.03501941       6.04558003       0.05849088      -0.09729851      -0.20819791       0.25374963
F        2.02206835       6.10923452       2.03283195       0.10669872       0.18431827       0.07208525
F       -0.00665419       6.12896045      -0.01672199       0.41972436      -0.49581076       0.45351663
F        2.04178361       4.05896403      -0.00764228       0.07188727       0.01792239      -0.20760398
F        0.01943115       4.07442820       2.02451947      -0.30281759       0.03914685       0.08290291
Li       4.08770183       4.04941372       0.02791360       0.03005851       0.11573512       0.13827213
Li       4.09446097       6.10543172       2.07673684      -0.03053288      -0.18386190      -0.10796962
Li       6.09342510       4.07949155       2.06278351      -0.15282123      -0.07786020      -0.05492648
Li       6.12152596       6.08397939       0.05556983      -0.91452391      -0.76509088       0.72893269
F        6.11105173       6.08868692       2.08751671       0.08884447       0.14030021      -0.23517161
F        4.08393821       6.16565696      -0.01318322       0.14203931      -0.08645283       0.10403995
F        6.08991447       4.09976241      -0.00843247       0.14965440       0.11307609      -0.04747928
F        4.09850698       4.09808305       2.02748088      -0.15122457      -0.11454059       0.05169666
Li       0.02966295       0.02780201       4.03085575       0.33384463       0.33672247       0.26445262
Li      -0.00797530       2.03497448       6.12765919       0.37262175      -0.26609426      -0.42719753
Li       2.01839818       0.04761645       6.11596433      -0.20015550       0.29063647      -0.39050146
Li       2.00118733       2.03747349       4.12846963       0.05754926      -0.05081734      -0.10653289
F        2.03128557       2.04914309       6.13663546       0.05367358       0.02214954       0.17200886
F       -0.02966773       2.04713801       4.08909809      -0.13747791       0.09069206      -0.05466037
F        2.04167868       0.00164731       4.08643765       0.02424910      -0.14211516      -0.01609742
F       -0.01027336       0.01881122       6.13025330       0.45907561       0.46256563      -0.39851431
Li       4.10023911      -0.00390560       4.12043362       0.02110876       0.32134727      -0.07291057
Li       4.06493997       2.05295905       6.09929851       0.12934526      -0.02116969      -0.19825519
Li       6.13943352      -0.03411234       6.13843885      -0.92758871       0.92962297      -0.88616516
Li       6.12066669       2.07632434       4.11988281      -0.29422599      -0.21877902      -0.10864274
F        6.10939668       2.01495472       6.12332362       0.12947021      -0.05190235       0.01846515
F        4.08828858       2.03569417       4.08611020      -0.11005916       0.10499537      -0.00332341
F        6.11722185      -0.01552314       4.08944022       0.12697419      -0.13008548       0.16344554
F        4.10045533      -0.01750618       6.14523686       0.05563404      -0.03925843       0.02597200
Li       0.00185631       4.09470387       4.08093728       0.26468401      -0.01459281      -0.06462056
Li       0.03575714       6.07728925       6.10924635       0.81180551      -0.69343321      -0.81553027
Li       2.00489759       4.05507782       6.09888201       0.16963779       0.11023631      -0.21715846
Li       2.00273661       6.07517047       4.07088490       0.04687635      -0.15730009       0.05193885
F        2.03864032       6.13012948       6.08891375      -0.20523342       0.03670815       0.12870248
F       -0.00393267       6.15032879       4.09223936      -0.08325103      -0.09932866       0.10467192
F        2.04443301       4.07791772       4.07216196      -0.04654802      -0.07989060      -0.01571947
F        0.02191571       4.08180638       6.13442345      -0.12953629       0.14522439       0.03090363
Li       4.08355245       4.04426463       4.03076244      -0.02196468       0.08885758       0.22857776
Li       4.07622991       6.11635454       6.08082887       0.16295318      -0.48044508      -0.36174213
Li       6.11228169       4.10347132       6.01287884      -0.43777145       0.18830091      -0.14672309
Li       6.06662086       6.09893477       4.09079253      -0.29274581      -0.34613553       0.20577104
F        6.12972389       6.11562311       6.08322565      -0.39288539      -0.40272037      -0.45861461
F        4.07554598       6.10207406       4.09497913      -0.03824387       0.23347802      -0.19905044
F        6.14276051       4.05190248       4.05245764       0.15027121       0.00856434       0.07758098
F        4.07887169       4.10463904       6.12839394      -0.03036910      -0.17287198       0.11810568
64
Lattice="28.160000039244697 0.0 0.0 0.0 28.160000039244697 0.0 0.0 0.0 28.160000039244697" Properties=species:S:1:pos:R:3:REF_forces:R:3 config_type=LIF64_ISOLATED REF_energy=-32503.9636348129 pbc="T T T"
Li       0.08327479       0.02086500      -0.00235329       0.67601630       0.79482492       0.89808813
Li      -0.00006514       2.04937259       2.05618069       0.25304669      -0.00953134      -0.09248181
Li       2.09944284       0.02957757       2.03513145      -0.03911394       0.22512451       0.03243318
Li       2.00093015       2.05650810       0.01627750       0.04112402      -0.02365955       0.27777402
F        2.02483117       2.04401473       2.02468610       0.09192928       0.03426946       0.10049080
F       -0.02712464       2.03564733      -0.01046760       0.06525177      -0.17998622      -0.08917563
F        2.08200223       0.00742400       0.03893311      -0.29496518      -0.04994985      -0.20375093
F       -0.03290835      -0.01827928       2.05027937       0.07194461       0.04868770      -0.18375700
Li       4.11602033       0.04494898      -0.00295749       0.19110316       0.33323631       0.47487118
Li       4.07658083       2.05955945       2.01924869       0.12953706      -0.22995870       0.03762295
Li       6.13495340      -0.02232190       2.05497676      -0.51625232       0.54776993      -0.20428623
Li       6.08931059       2.05109426      -0.02783812      -0.36015602      -0.24714755       0.53086904
F        6.13262306       2.04619974       2.04869179       0.18733572       0.07894624      -0.02905475
F        4.10221263       2.03383515      -0.02286953      -0.09962973       0.16884152      -0.18979935
F        6.10073563      -0.00602245       0.00102421      -0.33065646       0.41332000       0.35985803
F        4.08595623       0.01359053       2.03522238      -0.02833227      -0.22705643       0.12001935
Li       0.01623320       4.12880957      -0.02178347       0.36941019       0.07709479       0.48063791
Li       0.00642242       6.11622412       1.98815462       0.40539278      -0.41688998      -0.13368965
Li       2.08363617       4.07920006       2.06004084      -0.23928563      -0.02281520      -0.09452558
Li       2.02541199       6.03897210       0.06698349      -0.07464710      -0.18575552       0.22854022
F        2.01947576       6.11363726       2.02903506       0.11102435       0.16518232       0.11572972
F       -0.00377187       6.12569121      -0.01096544       0.40246198      -0.48648023       0.43348259
F        2.04179791       4.05897080      -0.00410129       0.06711505       0.01475273      -0.21805912
F        0.01923711       4.07417936       2.02630754      -0.29913603       0.04435230       0.10508613
Li       4.08423736       4.05173037       0.03387813       0.03200663       0.12306200       0.12046852
Li       4.09586670       6.10794890       2.07438612      -0.02213206      -0.17400378      -0.11116190
Li       6.10036087       4.07458713       2.06293653      -0.16363298      -0.05610096      -0.06012833
Li       6.11950626       6.08716732       0.05425669      -0.91377675      -0.76270027       0.72922939
F        6.11201519       6.09296199       2.08129900       0.08334848       0.12540813      -0.21855560
F        4.08197978       6.16787680      -0.01431639       0.13937359      -0.09510896       0.11669723
F        6.08989227       4.10666181      -0.00633804       0.14025676       0.08012997      -0.05173599
F        4.09439829       4.09638053       2.02716037      -0.13141834      -0.10281045       0.06684997
Li       0.02672894       0.04016015       4.03214165       0.32883715       0.29925430       0.26214994
Li      -0.00610225       2.03581217       6.12222920       0.35570569      -0.27053842      -0.40442167
Li       2.01593492       0.04093136       6.11967374      -0.20268340       0.29777360      -0.38850680
Li       2.00837271       2.03447100       4.13035746       0.03346496      -0.06146736      -0.11665044
F        2.02804556       2.04939333       6.13937122       0.06668285       0.02199219       0.15330614
F       -0.03201436       2.04593539       4.09508270      -0.12483143       0.10427057      -0.08216680
F        2.04138872       0.00328348       4.08877473       0.04319530      -0.13776408      -0.01717985
F       -0.01691343       0.01834904       6.13048193       0.47686996       0.46540464      -0.40116177
Li       4.09790067       0.00274557       4.12063647       0.03614740       0.30317034      -0.05443077
Li       4.05779239       2.05334963       6.09451775       0.15490794      -0.02414549      -0.16665376
Li       6.14792864      -0.03255195       6.13895602      -0.94191002       0.93313536      -0.88349198
Li       6.12789808       2.07879272       4.12286948      -0.29815952      -0.21920017      -0.10917264
F        6.10938940       2.01108385       6.11832390       0.14127929      -0.04480199       0.02169394
F        4.08623718       2.04148001       4.09227804      -0.11425777       0.07782344      -0.03111292
F        6.12155955      -0.01199211       4.08650459       0.10927291      -0.13122679       0.16182498
F        4.10182323      -0.01937252       6.15379349       0.04591836      -0.02948181      -0.00904026
Li       0.00138297       4.09759293       4.07718229       0.24569256      -0.03212748      -0.05777577
Li       0.03950178       6.08105640       6.10537888       0.79993447      -0.70297586      -0.80417679
Li       2.00191641       4.05329166       6.09835032       0.17224746       0.10446726      -0.19795849
Li       2.00027307       6.06449592       4.06640625       0.06509750      -0.11050241       0.05301743
F        2.04550436       6.12726790       6.08392291      -0.24169990       0.03138520       0.12839601
F       -0.00588758       6.14895838       4.09292788      -0.06913516      -0.10492672       0.10854863
F        2.04537552       4.07723269       4.06518577      -0.05703967      -0.07380197       0.01691966
F        0.02020114       4.07741596       6.13684406      -0.10723017       0.17828004       0.01006253
Li       4.06947998       4.04415772       4.02986039       0.03738230       0.10491489       0.23966461
Li       4.06432088       6.11495389       6.07751549       0.20445001      -0.47948529      -0.36342235
Li       6.11197286       4.10336872       6.00492623      -0.43897370       0.20418261      -0.12444988
Li       6.07150132       6.09295400       4.08220437      -0.30323719      -0.33579353       0.23127767
F        6.13133143       6.10667760       6.08050054      -0.38538085      -0.38631931      -0.45666829
F        4.07757172       6.10536844       4.09422006      -0.06201758       0.21111071      -0.22285577
F        6.14508606       4.05616649       4.05253184       0.14963640      -0.01246959       0.04745537
F        4.08007372       4.10466051       6.12637139      -0.06470952      -0.18518499       0.10839360
64
Lattice="28.160000039244697 0.0 0.0 0.0 28.160000039244697 0.0 0.0 0.0 28.160000039244697" Properties=species:S:1:pos:R:3:REF_forces:R:3 config_type=LIF64_ISOLATED REF_energy=-32503.95289937774 pbc="T T T"
Li       0.08136046       0.01965418       0.00208312       0.68100707       0.79570603       0.89608422
Li       0.00363002       2.04302973       2.05405976       0.23955945       0.00646735      -0.08897920
Li       2.10035911       0.03613124       2.03702882      -0.04372829       0.20280836       0.03291243
Li       2.00674124       2.05717471       0.01463874       0.02528809      -0.02432521       0.27985327
F        2.02718107       2.04465425       2.01996347       0.08086171       0.02683049       0.12434241
F       -0.02852875       2.03804135      -0.01076353       0.06439585      -0.19598799      -0.08341739
F        2.08352595       0.00757585       0.04168690      -0.29953609      -0.04684396      -0.21088111
F       -0.03668517      -0.02204469       2.05205492       0.07681916       0.06779948      -0.18610339
Li       4.12143697       0.04852301      -0.00182120       0.16594877       0.31488352       0.46943921
Li       4.08515012       2.04966089       2.02089627       0.09367403      -0.19984079       0.03055139
Li       6.14177835      -0.02421549       2.05442666      -0.53212862       0.53975066      -0.21562531
Li       6.08986811       2.05124034      -0.02605339      -0.35767336      -0.23984973       0.51916743
F        6.13108046       2.04614961       2.04710514       0.19680535       0.05904564      -0.01703819
F        4.10066386       2.03358064      -0.02087543      -0.07274525       0.16465653      -0.19516113
F        6.10039267      -0.00773146      -0.00412693      -0.32465242       0.42332237       0.38107863
F        4.08275223       0.01372477       2.03632529       0.01968257      -0.21632799       0.12289487
Li       0.01301956       4.12670584      -0.02324065       0.37557055       0.07691764       0.49179444
Li       0.00997792       6.11606974       1.98898960       0.40808575      -0.42117858      -0.12785967
Li       2.07159925       4.07460624       2.05756324      -0.20896615       0.00187871      -0.09298137
Li       2.02530851       6.04382647       0.06007581      -0.06395362      -0.20894481       0.26218670
F        2.02176396       6.11287752       2.02851487       0.10403300       0.16927398       0.11975042
F       -0.00487654       6.12176197      -0.00584410       0.39927715      -0.46892962       0.40681794
F        2.03955592       4.05477787      -0.00166448       0.07756710       0.02523486      -0.23338752
F        0.01699137       4.07698162       2.02704783      -0.29301294       0.02218348       0.11042168
Li       4.08864047       4.04500270       0.03386342       0.00561040       0.14872366       0.13268306
Li       4.10536588       6.10762350       2.07932438      -0.07924191      -0.17847827      -0.14137802
Li       6.09510859       4.07760125       2.06956968      -0.15531494      -0.06648693      -0.08327006
Li       6.12709478       6.08630981       0.05363765      -0.93800425      -0.77010993       0.72020970
F        6.10876645       6.08447212       2.07643871       0.10951820       0.15615621      -0.20935130
F        4.07584249       6.17021134      -0.01878043       0.16865794      -0.10245358       0.11743462
F        6.08976283       4.10531195      -0.00737138       0.14323204       0.07607123      -0.05368103
F        4.09644011       4.09771014       2.03172288      -0.12592775      -0.12162526       0.04445180
Li       0.02261702       0.04583671       4.04189820       0.33836695       0.28852817       0.23793529
Li      -0.00033514       2.03180435       6.12315480       0.34853309      -0.24900003      -0.40996908
Li       2.01486584       0.03917394       6.11989299      -0.20100190       0.30256639      -0.40309627
Li       2.01175398       2.03389563       4.13162152       0.02244959      -0.05038848      -0.11623006
F        2.02280133       2.05022068       6.13595810       0.09225658       0.01122595       0.17448997
F       -0.03200551       2.04638492       4.09441148      -0.12641831       0.09433583      -0.08024799
F        2.04203700       0.00580364       4.08695576       0.04353263      -0.13147645      -0.00422509
F       -0.01371633       0.01978437       6.12940990       0.46650687       0.45328960      -0.39327825
Li       4.10752906       0.00927598       4.12699858      -0.01173323       0.28235006      -0.07648569
Li       4.06382868       2.05305439       6.09970532       0.13061513       0.00634754      -0.17636559
Li       6.14634436      -0.03755671       6.13668048      -0.93644539       0.93371720      -0.86768124
Li       6.12977149       2.07027203       4.12084897      -0.30219898      -0.18011246      -0.09779577
F        6.10465062       2.01543050       6.12155143       0.14946440      -0.08285354       0.00158303
F        4.08628095       2.04554093       4.09263674      -0.08642995       0.03836189      -0.03212439
F        6.12478002      -0.01364819       4.08353769       0.11063354      -0.11377234       0.17561586
F        4.09868319      -0.02345046       6.14959576       0.07436453      -0.01938303      -0.00310255
Li       0.00050447       4.09790820       4.07799007       0.24838245      -0.02376676      -0.06015147
Li       0.03878042       6.07968901       6.11184711       0.79984294      -0.70165560      -0.82079177
Li       1.99677420       4.05815432       6.09714611       0.18976078       0.09913377      -0.20567257
Li       2.00724928       6.06676272       4.07028277       0.04357711      -0.12531634       0.03646930
F        2.04383666       6.12507293       6.09024304      -0.21812751       0.04451711       0.12249507
F       -0.00317835       6.14874950       4.09624456      -0.06969901      -0.09474952       0.10763846
F        2.04317174       4.07622367       4.06742321      -0.04033598      -0.06946555       0.00489075
F        0.01989353       4.08161425       6.13482800      -0.11741354       0.16169334       0.02875573
Li       4.07448460       4.03788658       4.01783558       0.00537129       0.12041607       0.27525973
Li       4.06888944       6.12323956       6.08088490       0.19951041      -0.50905940      -0.36974109
Li       6.11070406       4.10502087       6.00105090      -0.44880431       0.21152517      -0.11227905
Li       6.06693910       6.09345721       4.07507256      -0.29353668      -0.33446864       0.25999895
F        6.13317597       6.10839434       6.08182225      -0.39118306      -0.38052275      -0.46893065
F        4.07993071       6.11100638       4.09045318      -0.05768321       0.21302104      -0.19870179
F        6.14342774       4.05850673       4.05183357       0.16173627      -0.03093448       0.03981456
F        4.08245768       4.10574087       6.12606312      -0.06460334      -0.18043154       0.10896361
64
Lattice="28.160000039244697 0.0 0.0 0.0 28.160000039244697 0.0 0.0 0.0 28.160000039244697" Properties=species:S:1:pos:R:3:REF_forces:R:3 config_type=LIF64_ISOLATED REF_energy=-32503.981780043945 pbc="T T T"
Li       0.08215588       0.02507403       0.00871451       0.67107618       0.77482662       0.88525370
Li       0.00554056       2.04401578       2.05115145       0.22769330      -0.00456139      -0.06984607
Li       2.10091363       0.03437589       2.03334476      -0.03992795       0.18986774       0.04885482
Li       2.01107925       2.05372990       0.02274989       0.03170067      -0.01348595       0.25228076
F        2.02651401       2.03968708       2.02075693       0.07171629       0.05159767       0.11700473
F       -0.03029032       2.03912738      -0.01077279       0.07457948      -0.19063727      -0.06591537
F        2.08174391       0.00797330       0.04655822      -0.29150473      -0.04116002      -0.22038956
F       -0.03689579      -0.02871855       2.05527072       0.07943552       0.08587613      -0.20137806
Li       4.12736525       0.05115503      -0.00624636       0.15756337       0.30305156       0.46914791
Li       4.08330720       2.05011095       2.01636609       0.09757054      -0.18399277       0.05656838
Li       6.13587190      -0.00933273       2.05928651      -0.50967389       0.50672252      -0.21952130
Li       6.08503279       2.04854953      -0.02675884      -0.33906449      -0.22792264       0.50845313
F        6.13395359       2.04537632       2.04198024       0.18915297       0.05498870      -0.01000108
F        4.09937354       2.03783569      -0.02634216      -0.06910071       0.14348555      -0.17933265
F        6.09859357      -0.00845737      -0.01038208      -0.33680757       0.43915676       0.38445911
F        4.08316087       0.01546508       2.03670273       0.03304896      -0.20743943       0.11465372
Li       0.01922524       4.12559275      -0.02773259       0.36605696       0.06991472       0.49079788
Li       0.00496121       6.11253830       1.98844103       0.40834492      -0.41133151      -0.12342529
Li       2.07059147       4.07312603       2.06165834      -0.19096534       0.00265595      -0.10208539
Li       2.01629360       6.04247094       0.06653612      -0.04088080      -0.20128575       0.25047250
F        2.01721234       6.11115347       2.03052619       0.11059806       0.16669027       0.12792627
F       -0.00429554       6.11921212      -0.00451029       0.39590592      -0.47296754       0.40219715
F        2.04684584       4.05315955      -0.00195147       0.04023802       0.03127773      -0.21976864
F        0.01615904       4.07834284       2.03021053      -0.28663841       0.00905671       0.09490199
Li       4.09398960       4.05710014       0.02228622      -0.00710936       0.13201843       0.15947730
Li       4.11087978       6.10750594       2.08525761      -0.09857275      -0.17620876      -0.16543378
Li       6.09441898       4.07768226       2.07885147      -0.15570112      -0.07874929      -0.11133082
Li       6.12871762       6.09006060       0.05581655      -0.93677501      -0.77647521       0.71436533
F        6.10548737       6.08805001       2.07768827       0.11211990       0.14581780      -0.20346939
F        4.06984023       6.17421267      -0.01782631       0.18981503      -0.11689469       0.12418094
F        6.09174349       4.10500588      -0.01124076       0.12824740       0.10354835      -0.04276619
F        4.09842619       4.09546910       2.03758906      -0.13132912      -0.09345677       0.01362530
Li       0.02761740       0.03890351       4.04206126       0.32611847       0.30026243       0.24207348
Li      -0.00094787       2.04185483       6.12374931       0.35728204      -0.26962208      -0.42390241
Li       2.01134136       0.03489105       6.11835745      -0.20339097       0.31794750      -0.40527656
Li       2.00591824       2.02835907       4.12666467       0.04655599      -0.03809295      -0.09301017
F        2.02351992       2.04671836       6.13116690       0.09502694       0.03230128       0.19912088
F       -0.02764985       2.04293385       4.09604814      -0.13848013       0.11008410      -0.10282330
F        2.04425682       0.00277853       4.08458467       0.04425228      -0.14092216       0.00191779
F       -0.01348044       0.02024989       6.12751504       0.46998609       0.44117739      -0.38746627
Li       4.10875219       0.00785079       4.12738934      -0.01077395       0.30109521      -0.07321371
Li       4.06025453       2.04840114       6.10501501       0.13817031       0.00710344      -0.21493188
Li       6.14434429      -0.03870281       6.13994331      -0.92935121       0.94253094      -0.87461293
Li       6.13158349       2.06908295       4.11701654      -0.32250375      -0.18132088      -0.07318568
F        6.09918779       2.01225762       6.12061329       0.16303751      -0.06998800       0.01667283
F        4.08941272       2.05002314       4.09201929      -0.09794335       0.01960620      -0.04226816
F        6.13238129      -0.01287033       4.08526271       0.08888921      -0.10818251       0.16085850
F        4.10200398      -0.01911493       6.14841430       0.06143085      -0.04480996       0.00434645
Li      -0.00334073       4.10404564       4.06831028       0.25668686      -0.04121221      -0.03401981
Li       0.04737101       6.07495703       6.11370862       0.77811506      -0.68863604      -0.81658005
Li       1.99717902       4.06340261       6.09965432       0.18751672       0.07459362      -0.22530011
Li       2.00310150       6.06498555       4.06493793       0.03898898      -0.11789845       0.04870646
F        2.04180665       6.12541642       6.09288733      -0.21074047       0.03301734       0.11585288
F       -0.00605375       6.14571033       4.09531605      -0.06527208      -0.09110678       0.10326604
F        2.04116878       4.07660768       4.06971804      -0.03818731      -0.05425670      -0.01067548
F        0.02161232       4.08263370       6.13334452      -0.11991857       0.15784928       0.04189638
Li       4.06998906       4.05637929       4.01753202       0.00873764       0.04176706       0.28273496
Li       4.07119595       6.11557926       6.08158981       0.20181797      -0.47813648      -0.35561802
Li       6.09901087       4.10088959       5.99809729      -0.42235409       0.20660202      -0.09875813
Li       6.06553376       6.09077146       4.07551306      -0.27785141      -0.31984009       0.27691707
F        6.13111525       6.11257478       6.08385341      -0.39730974      -0.39204104      -0.48556363
F        4.07817925       6.10843752       4.09323400      -0.05547798       0.21503884      -0.21572198
F        6.14347413       4.05525864       4.05216601       0.17288895       0.00245052       0.03209559
F        4.08888567       4.11012918       6.12352205      -0.09675884      -0.18134582       0.12651165
64
Lattice="28.160000039244697 0.0 0.0 0.0 28.160000039244697 0.0 0.0 0.0 28.160000039244697" Properties=species:S:1:pos:R:3:REF_forces:R:3 config_type=LIF64_ISOLATED REF_energy=-32504.00758840886 pbc="T T T"
Li       0.09343599       0.02641141       0.00704792       0.65266760       0.76403133       0.87331170
Li       0.00610024       2.04620556       2.04631468       0.22776400      -0.02044336      -0.05249781
Li       2.09617659       0.03578106       2.03464263      -0.02395214       0.18292216       0.05059160
Li       2.01033734       2.06080386       0.02682506       0.04166627      -0.02966359       0.23462165
F        2.02336994       2.04081681       2.01462624       0.07456328       0.04400880       0.15149711
F       -0.02748587       2.03493405      -0.01378457       0.06495532      -0.17085778      -0.05252789
F        2.07852862       0.00744273       0.04023201      -0.27643730      -0.04346527      -0.19453738
F       -0.03683620      -0.03198481       2.05920234       0.09247564       0.09712599      -0.20554427
Li       4.12098559       0.05213308      -0.00425899       0.17281721       0.30289112       0.46977860
Li       4.08542197       2.05633785       2.01909673       0.09507477      -0.20099393       0.04990845
Li       6.13000813      -0.00607881       2.06992494      -0.50337058       0.50092160      -0.23358447
Li       6.08716734       2.04086201      -0.02678073      -0.34656825      -0.22775115       0.51384988
F        6.13708151       2.04256394       2.04020430       0.17791648       0.07886653      -0.00322699
F        4.09655251       2.03971235      -0.02626157      -0.05757523       0.13524183      -0.17533998
F        6.09883839      -0.00818178      -0.00967606      -0.34812171       0.44494611       0.37555821
F        4.08431339       0.01290321       2.04006206       0.01006973      -0.19052697       0.10026274
Li       0.02122342       4.12685446      -0.02526724       0.36417054       0.05513268       0.47496040
Li       0.01230134       6.11384438       1.97967206       0.38291002      -0.40695781      -0.09507117
Li       2.06494748       4.07745961       2.06523679      -0.16754619      -0.02474173      -0.10903123
Li       2.01310310       6.04452276       0.07595475      -0.01858728      -0.21323855       0.20916541
F        2.01721617       6.11315470       2.03193721       0.11808794       0.17518366       0.13100002
F       -0.00266267       6.11437952      -0.00306474       0.39712154      -0.45179399       0.40035084
F        2.04767333       4.05043211       0.00001779       0.02723158       0.06640362      -0.21721502
F        0.01751537       4.08002277       2.02802983      -0.28789002       0.01305349       0.09945053
Li       4.09500158       4.05837761       0.01691202      -0.00723971       0.12469130       0.16589580
Li       4.10490757       6.11010944       2.08945903      -0.08901493      -0.19091444      -0.21101301
Li       6.08892565       4.08140594       2.08201545      -0.14250571      -0.10517483      -0.13117383
Li       6.12780431       6.08789108       0.05710258      -0.93809064      -0.77395707       0.69956015
F        6.10278542       6.09011157       2.07440080       0.10013547       0.14661999      -0.17575907
F        4.07075523       6.17419180      -0.02086102       0.17095213      -0.11092845       0.14116462
F        6.08915811       4.10817364      -0.01310248       0.13360352       0.09935411      -0.03615922
F        4.09716535       4.09434744       2.03798298      -0.12850374      -0.06742204       0.02295558
Li       0.02383147       0.03807841       4.04511640       0.33126016       0.30657088       0.23555573
Li      -0.00761754       2.04242353       6.12969843       0.37244975      -0.26182058      -0.45777206
Li       2.00639311       0.03036504       6.12092969      -0.19456926       0.32960874      -0.41846915
Li       2.00913458       2.02737701       4.13008327       0.03213416      -0.03624047      -0.09621839
F        2.02590409       2.04840900       6.13087721       0.08835030       0.01636739       0.21327995
F       -0.02567392       2.04208781       4.10017050      -0.13908845       0.11559294      -0.12468488
F        2.04946904      -0.00138637       4.08716555       0.03088306      -0.12477872       0.01104932
F       -0.01882969       0.01868633       6.12055061       0.47595465       0.43892125      -0.36424921
Li       4.10678080       0.01016220       4.13519599      -0.00197924       0.29409152      -0.09011100
Li       4.06126542       2.04605741       6.10035572       0.14646289       0.00390705      -0.20435539
Li       6.14942879      -0.03804462       6.14382961      -0.94177580       0.94685476      -0.87918436
Li       6.13628559       2.07603488       4.12162079      -0.33597505      -0.19960502      -0.07921312
F        6.09345823       2.01076565       6.12500590       0.18970628      -0.05862501       0.02077811
F        4.09052239       2.05271963       4.09175659      -0.11292285       0.01928353      -0.04221803
F        6.13149567      -0.00955096       4.08517425       0.09931426      -0.11137736       0.17885159
F        4.10750973      -0.01671968       6.15255050       0.04317139      -0.05546795       0.00364634
Li      -0.00252998       4.11147509       4.06538027       0.25820715      -0.05873839      -0.01591899
Li       0.05665379       6.07319987       6.11311899       0.74960024      -0.68484855      -0.81552924
Li       2.00188589       4.06083424       6.10427197       0.17045437       0.06121180      -0.23884314
Li       2.01254465       6.06694083       4.07356687      -0.01118558      -0.12969904       0.03244655
F        2.03869747       6.12351953       6.09521902      -0.16600970       0.04344779       0.10800125
F       -0.00424164       6.14904352       4.09996597      -0.05065870      -0.09348094       0.08954741
F        2.04083502       4.07867993       4.06967227      -0.02567838      -0.04188970      -0.01234207
F        0.02475267       4.08119950       6.12804023      -0.12517956       0.16146579       0.06860552
Li       4.07119615       4.06760296       4.01977143       0.00783441      -0.02093701       0.27782055
Li       4.06944084       6.11560811       6.07106710       0.21204196      -0.48495042      -0.31374143
Li       6.09898171       4.10815380       6.00925731      -0.42458606       0.19021458      -0.13476206
Li       6.05415841       6.09230658       4.06333631      -0.22708086      -0.33235751       0.29927846
F        6.12852038       6.10718938       6.07584514      -0.40091083      -0.36207355      -0.47524605
F        4.07693916       6.10250772       4.08873023      -0.06955554       0.24875063      -0.20347582
F        6.14267406       4.05066343       4.05359816       0.17139565       0.03861720       0.02308131
F        4.09269470       4.11131162       6.12093670      -0.12084339      -0.16057825       0.13318983
64
Lattice="28.160000039244697 0.0 0.0 0.0 28.160000039244697 0.0 0.0 0.0 28.160000039244697" Properties=species:S:1:pos:R:3:REF_forces:R:3 config_type=LIF64_ISOLATED REF_energy=-32504.038475234345 pbc="T T T"
Li       0.09639902       0.02652143       0.00871332       0.63984422       0.76681866       0.88402214
Li       0.00729838       2.05294354       2.04362540       0.22098966      -0.04431682      -0.05797838
Li       2.10516680       0.03818991       2.03383245      -0.05886464       0.18780263       0.05705535
Li       2.00789640       2.05936683       0.02469431       0.02432855      -0.01666640       0.24436124
F        2.01887237       2.04210654       2.00862065       0.10949917       0.04929885       0.17158488
F       -0.02604467       2.03617074      -0.00750634       0.05899550      -0.17290669      -0.07873901
F        2.07480052       0.00740699       0.03756372      -0.23872667      -0.04336140      -0.19676704
F       -0.03682622      -0.02921691       2.06078517       0.08561671       0.08051821      -0.20176809
Li       4.12614979       0.05024257      -0.01034299       0.15426439       0.30565763       0.48209907
Li       4.09100346       2.05658825       2.01376786       0.07160831      -0.19157778       0.07489701
Li       6.13533027      -0.00578772       2.06454176      -0.50498626       0.50032665      -0.21701036
Li       6.08178526       2.04241885      -0.02368715      -0.31967143      -0.22211837       0.50760724
F        6.13964890       2.04246078       2.04393153       0.16653421       0.07790005      -0.03524108
F        4.09829051       2.04361643      -0.02484347      -0.05266031       0.11208801      -0.18146846
F        6.09823471      -0.00729198      -0.00601170      -0.34644458       0.44214027       0.36510925
F        4.08615469       0.01683872       2.04051366       0.01641881      -0.19355393       0.08457155
Li       0.02056279       4.13497774      -0.02170392       0.35980403       0.04134385       0.46659866
Li       0.01224733       6.10647400       1.98682595       0.37180646      -0.39193537      -0.10595645
Li       2.06307676       4.07958809       2.06437343      -0.15522495      -0.03496572      -0.10933076
Li       2.01356322       6.03985942       0.08338417      -0.01770873      -0.20349202       0.18870740
F        2.01808429       6.11243592       2.03560407       0.10463001       0.17302470       0.11879139
F       -0.00280868       6.11177613      -0.00010735       0.39669422      -0.43836538       0.39823148
F        2.04804475       4.05323349      -0.00096472       0.03148084       0.04927339      -0.21593050
F        0.01350711       4.08263276       2.02142883      -0.27174426       0.00710010       0.13304096
Li       4.09744570       4.05046339       0.01230845      -0.02697139       0.16123979       0.17899892
Li       4.10168168       6.10810110       2.08590457      -0.07678034      -0.18440877      -0.19046424
Li       6.09161020       4.08197545       2.07920822      -0.14960375      -0.08836419      -0.11925394
Li       6.12493002       6.08507490       0.04910952      -0.94160714      -0.76462988       0.71802864
F        6.10160368       6.09056895       2.07042497       0.10893533       0.13568380      -0.16979565
F        4.07088529       6.16726300      -0.02192468       0.16919196      -0.09774589       0.13165231
F        6.08772634       4.10848345      -0.01251618       0.13907663       0.07468438      -0.04227871
F        4.09326592       4.10146872       2.04249515      -0.10762201      -0.12143629      -0.00592794
Li       0.01777653       0.03268695       4.05104781       0.34944429       0.32518773       0.20727360
Li      -0.00787080       2.04130366       6.13365780       0.36657709      -0.26065972      -0.46057019
Li       2.00903155       0.02976448       6.13432180      -0.19875476       0.34178471      -0.45706141
Li       2.00198981       2.02140575       4.13248257       0.05129042      -0.03690741      -0.10505348
F        2.02481862       2.04640308       6.13058636       0.08862824       0.00879137       0.22530423
F       -0.02656369       2.04289891       4.09941872      -0.13707374       0.12351888      -0.10887799
F        2.05094486       0.00221003       4.08342559       0.03172227      -0.13693901       0.03464073
F       -0.02013833       0.02139776       6.12163145       0.47895332       0.42648174      -0.35588876
Li       4.11202530       0.01279969       4.13180434      -0.01648489       0.29799986      -0.09314078
Li       4.06819805       2.03980524       6.10018799       0.13364106       0.04214629      -0.21466320
Li       6.13777318      -0.03039476       6.14332619      -0.90639743       0.93198504      -0.87690302
Li       6.13787124       2.07193544       4.11839995      -0.33041812      -0.18335668      -0.07227988
F        6.09318955       2.01320163       6.11914826       0.19383058      -0.07353766       0.04891010
F        4.09342364       2.05309868       4.09610620      -0.12530605       0.00954316      -0.07013327
F        6.13610462      -0.00811462       4.08489987       0.08484152      -0.11502113       0.16968381
F        4.11132277      -0.01405450       6.14994935       0.03438439      -0.06464525       0.02405164
Li       0.00750224       4.10093743       4.07127817       0.22751203      -0.04993622      -0.03126024
Li       0.06050121       6.07329406       6.10637497       0.74194581      -0.68150817      -0.79425850
Li       1.99637692       4.05507835       6.10174634       0.20377715       0.07715289      -0.22595574
Li       2.00011874       6.06372511       4.07168663       0.04089828      -0.11943494       0.03627132
F        2.03790418       6.12131874       6.09528371      -0.18709378       0.04831489       0.10259653
F       -0.00283551       6.14800272       4.09485514      -0.05613284      -0.10035993       0.10557747
F        2.03645552       4.07854640       4.07035480      -0.03325028      -0.06130847      -0.01294910
F        0.02385259       4.07882865       6.13260925      -0.12196362       0.16043915       0.05139250
Li       4.07644436       4.06190450       4.01593264      -0.00566028       0.00277293       0.29997215
Li       4.06899756       6.11724967       6.07327473       0.20614180      -0.50022149      -0.32985582
Li       6.10263342       4.11071881       6.01244383      -0.44285632       0.18358576      -0.14777364
Li       6.05274256       6.08535638       4.06344507      -0.23911337      -0.31994371       0.29001452
F        6.12699588       6.10208877       6.07921305      -0.38171703      -0.35359559      -0.47832803
F        4.07671415       6.10376604       4.08853380      -0.06130616       0.24069896      -0.19786387
F        6.14364629       4.04477004       4.05029126       0.17750639       0.06715259       0.02901233
F        4.09482600       4.11497544       6.12305948      -0.12867034      -0.18523770       0.13066860
64
Lattice="28.160000039244697 0.0 0.0 0.0 28.160000039244697 0.0 0.0 0.0 28.160000039244697" Properties=species:S:1:pos:R:3:REF_forces:R:3 config_type=LIF64_ISOLATED REF_energy=-32504.027352853303 pbc="T T T"
Li       0.10146715       0.03108766       0.01045176       0.60449155       0.75327332       0.89261194
Li       0.00807517       2.05737090       2.04472252       0.20690773      -0.05446419      -0.05469893
Li       2.11443479       0.04012264       2.03261762      -0.10256773       0.17824327       0.06387160
Li       2.00798670       2.05638721       0.02033259       0.01775192       0.00716978       0.26177584
F        2.01661963       2.04440780       2.00846241       0.13718995       0.01421126       0.17014172
F       -0.02878009       2.03603964      -0.00751380       0.08231798      -0.16811621      -0.09039613
F        2.07279962       0.00293351       0.04060246      -0.21108088      -0.03037578      -0.19757694
F       -0.04483464      -0.02423811       2.06104607       0.11065539       0.08013460      -0.19961531
Li       4.12466748       0.03940062      -0.00752847       0.16071220       0.32161569       0.46907206
Li       4.08901496       2.05189864       2.01354917       0.08162250      -0.14598544       0.07566731
Li       6.13385338      -0.00381324       2.06538888      -0.48205022       0.49795326      -0.20869773
Li       6.07242424       2.03988658      -0.02663053      -0.29656827      -0.21268011       0.50739487
F        6.14043219       2.04537441       2.04814388       0.15064942       0.04130169      -0.05916905
F        4.09559942       2.04649721      -0.02163295      -0.06179029       0.06892202      -0.18942423
F        6.09697865      -0.00387967      -0.00863892      -0.36246770       0.43839469       0.37090991
F        4.08864991       0.00905584       2.04121953       0.01424391      -0.17400532       0.08201999
Li       0.02046799       4.12987954      -0.02278836       0.35829042       0.05868826       0.47721629
Li       0.01857395       6.09866576       1.98506249       0.36394994      -0.37572996      -0.10836840
Li       2.06971540       4.07769717       2.07033314      -0.17100176      -0.01544359      -0.12516773
Li       2.01590791       6.03559276       0.07665569      -0.02778823      -0.19136618       0.21553121
F        2.01472049       6.11201037       2.03273202       0.13703903       0.16886851       0.12727295
F       -0.00309738       6.10940612       0.00170073       0.39339550      -0.44498519       0.37500157
F        2.04653370       4.05571276       0.00228260       0.04261861       0.01943960      -0.24468237
F        0.01538257       4.08319212       2.02332877      -0.28174251      -0.01386596       0.13300008
Li       4.09528063       4.04561275       0.00704575      -0.02139106       0.18501478       0.20030873
Li       4.10606466       6.09893801       2.07952152      -0.08091776      -0.17098633      -0.18296690
Li       6.09430574       4.07774639       2.06960919      -0.16248909      -0.06363043      -0.08477287
Li       6.12497846       6.09370047       0.05013278      -0.95189438      -0.77465024       0.72396403
F        6.09663457       6.09240780       2.06951350       0.12812270       0.14145207      -0.18257635
F        4.07442479       6.16887898      -0.02253632       0.15501721      -0.09805030       0.11857414
F        6.08209789       4.11082711      -0.01131604       0.15411629       0.05549109      -0.05443334
F        4.09403977       4.10023233       2.04006475      -0.12118895      -0.13588512       0.00139894
Li       0.02150811       0.03577875       4.05534312       0.32781180       0.31806834       0.19433503
Li      -0.01264930       2.04295138       6.13447988       0.37472029      -0.26872039      -0.46510356
Li       2.01755838       0.03078460       6.13691773      -0.22020419       0.33576088      -0.45065551
Li       2.00689913       2.02004450       4.12914635       0.02326463      -0.02016670      -0.09757696
F        2.02215350       2.04896351       6.13180478       0.10362934      -0.01604523       0.21201651
F       -0.02806663       2.04460759       4.09978927      -0.12765604       0.12518341      -0.09719156
F        2.05102468       0.00062905       4.08116024       0.05800769      -0.12294450       0.03744066
F       -0.02151107       0.01888515       6.12030074       0.49129950       0.43758402      -0.35627005
Li       4.10876851       0.01164428       4.12759092       0.00406080       0.29175953      -0.07116351
Li       4.06037796       2.03301711       6.09990388       0.17399015       0.06287041      -0.20073811
Li       6.13970729      -0.03377356       6.14497767      -0.89809250       0.95277267      -0.87625793
Li       6.13185439       2.06996262       4.11209836      -0.30294049      -0.15718259      -0.04075276
F        6.09478023       2.00971579       6.11979733       0.17253799      -0.06848339       0.04220852
F        4.09438367       2.05509248       4.09307098      -0.14703650      -0.02796486      -0.06313344
F        6.14035333      -0.00689393       4.08956170       0.05474547      -0.12568529       0.14394218
F        4.11123117      -0.01306075       6.15628277       0.00928245      -0.06530731      -0.00226977
Li       0.00005011       4.10064774       4.07440721       0.24976570      -0.04776724      -0.04915281
Li       0.05709738       6.07214455       6.10592477       0.75745496      -0.68029153      -0.80069166
Li       1.99875063       4.05220990       6.09837551       0.20591837       0.09056608      -0.22034894
Li       2.00137163       6.06891755       4.07143587       0.04083709      -0.13462142       0.02130699
F        2.04592815       6.11995607       6.09294293      -0.22088090       0.06475478       0.10250397
F       -0.00096597       6.14941461       4.08679617      -0.05873325      -0.10847613       0.15001513
F        2.03979940       4.07801435       4.07037728      -0.04568927      -0.06647844      -0.00653292
F        0.02318217       4.07895558       6.13312029      -0.12756760       0.17471314       0.04585048
Li       4.07150745       4.06204768       4.02451777       0.02407221       0.01708935       0.27216310
Li       4.06792841       6.12594092       6.07616927       0.20668276      -0.52468528      -0.33638488
Li       6.10313480       4.11727875       6.01245904      -0.43622468       0.16434903      -0.15669537
Li       6.04490769       6.08661989       4.06839897      -0.21208182      -0.33227446       0.26457757
F        6.13512856       6.10444904       6.08255967      -0.41110757      -0.35353825      -0.47958684
F        4.08180822       6.09702668       4.08649442      -0.08727455       0.26669230      -0.17518726
F        6.14583851       4.04898270       4.04748418       0.16589632       0.04748853       0.04768754
F        4.09166021       4.11599033       6.12346420      -0.11264029      -0.18897300       0.12845926
64
Lattice="28.160000039244697 0.0 0.0 0.0 28.160000039244697 0.0 0.0 0.0 28.160000039244697" Properties=species:S:1:pos:R:3:REF_forces:R:3 config_type=LIF64_ISOLATED REF_energy=-32504.037188271945 pbc="T T T"
Li       0.09815838       0.03370213       0.01197423       0.61819630       0.74210650       0.89423714
Li      -0.00108001       2.05624441       2.05083395       0.24193207      -0.04688715      -0.05931741
Li       2.11129655       0.03922204       2.03352422      -0.08384547       0.18280338       0.05006709
Li       1.99996266       2.05422760       0.02268446       0.05105234       0.00905440       0.27123904
F        2.01595447       2.04461180       2.00781302       0.12567347      -0.00113514       0.18777615
F       -0.02651913       2.04100918      -0.00514540       0.05816787      -0.18166875      -0.09678378
F        2.07560528       0.00449434       0.04341846      -0.22675047      -0.03643639      -0.20970534
F       -0.04459259      -0.02727686       2.05778083       0.10020258       0.08548250      -0.19859098
Li       4.13688023       0.02656340      -0.01244969       0.12879813       0.36250498       0.49219913
Li       4.08505225       2.04809631       2.01454670       0.08428925      -0.14457416       0.05749809
Li       6.14085337       0.00192865       2.07040837      -0.50286664       0.49633321      -0.20886228
Li       6.06631094       2.03816987      -0.01596496      -0.28330394      -0.18971965       0.48932438
F        6.14037363       2.04941333       2.04854805       0.15579882       0.01739326      -0.04518457
F        4.09933811       2.05215365      -0.01493438      -0.08686755       0.03629498      -0.20487913
F        6.09223431       0.00105131      -0.00755360      -0.33560378       0.41101218       0.36334418
F        4.09215870       0.00884741       2.04345748       0.00028899      -0.18281675       0.08991611
Li       0.01888899       4.11847333      -0.01918499       0.37263718       0.09190177       0.48109788
Li       0.01984244       6.10753195       1.97853140       0.36714119      -0.38972088      -0.11295602
Li       2.07627973       4.08170493       2.07187267      -0.18985309      -0.03372593      -0.13219455
Li       2.02000889       6.03238772       0.07486525      -0.04828018      -0.18896914       0.21780792
F        2.01148800       6.10659672       2.03099163       0.16101816       0.19266304       0.13328753
F       -0.00002236       6.11263544       0.00395703       0.38335817      -0.44929154       0.36306882
F        2.04654085       4.05568430       0.00457351       0.04671334       0.01682530      -0.26361855
F        0.02095021       4.08578194       2.02152261      -0.31629325      -0.02781702       0.14734709
Li       4.08812320       4.04075959       0.00887690       0.00493266       0.17073025       0.19365549
Li       4.10782765       6.09544584       2.06991687      -0.08623429      -0.16740967      -0.14126695
Li       6.09180338       4.08491344       2.06588066      -0.15362187      -0.09247564      -0.08289108
Li       6.12189640       6.09574402       0.05076651      -0.94111066      -0.79186841       0.71257147
F        6.09590627       6.08700639       2.06986095       0.13215702       0.15854425      -0.19621322
F        4.07467195       6.17099404      -0.01872547       0.15634313      -0.09719413       0.11801621
F        6.08448415       4.10611039      -0.01458837       0.13687885       0.09207378      -0.03974103
F        4.09147280       4.09830200       2.03770480      -0.10912045      -0.11860447       0.01488155
Li       0.02247880       0.03028386       4.05464354       0.32538082       0.31709338       0.20177349
Li      -0.00701704       2.04336307       6.12998205       0.36057254      -0.25746204      -0.44578995
Li       2.01854271       0.03694877       6.13569224      -0.23038267       0.30770603      -0.43026434
Li       2.00089012       2.01211336       4.13047141       0.02565138       0.00238238      -0.11601769
F        2.01866196       2.04418236       6.13310404       0.12663429       0.00699520       0.18716834
F       -0.02840031       2.04141142       4.09480641      -0.13102496       0.12731949      -0.09592812
F        2.04533236      -0.00386623       4.08222598       0.07773422      -0.11295885       0.02750772
F       -0.01568665       0.01949898       6.12228851       0.47551062       0.43350059      -0.36577336
Li       4.10719011       0.00636503       4.13167604       0.00872350       0.28867344      -0.08723959
Li       4.05196310       2.03233086       6.09783027       0.18301421       0.06726777      -0.18415886
Li       6.14119920      -0.02236985       6.14701227      -0.89793207       0.93598337      -0.86871997
Li       6.12664394       2.06869887       4.11295133      -0.28533460      -0.14558743      -0.05527846
F        6.09441843       2.01224487       6.12216791       0.15846454      -0.07960187       0.02863875
F        4.09126530       2.05628874       4.08953914      -0.14416715      -0.04992954      -0.03146593
F        6.13827084      -0.00662857       4.09031187       0.05986197      -0.11277861       0.15506092
F        4.10735088      -0.01473585       6.15913868       0.01719837      -0.04311740      -0.02072823
Li      -0.00185467       4.10638661       4.06334422       0.25718102      -0.04750859      -0.02385881
Li       0.06027837       6.07672488       6.10538945       0.75369832      -0.69381887      -0.79787630
Li       2.00403845       4.06051113       6.08971203       0.18265014       0.08565784      -0.20348790
Li       1.99668610       6.06391253       4.06393305       0.06598968      -0.11927013       0.03842848
F        2.04348741       6.11795980       6.09163964      -0.21502701       0.07281236       0.10821079
F        0.00024383       6.15133247       4.08789461      -0.06653655      -0.10708696       0.13372873
F        2.04226004       4.08058363       4.06878185      -0.05964368      -0.09197350      -0.00121716
F        0.02345682       4.07948863       6.13222880      -0.12022967       0.16899115       0.02807028
Li       4.07318989       4.04853984       4.02534405       0.02108767       0.07378140       0.26177481
Li       4.06793045       6.12757581       6.07545784       0.20942227      -0.51903142      -0.35223316
Li       6.10216372       4.11579448       6.00698063      -0.43113312       0.17923109      -0.14625026
Li       6.05125485       6.08714071       4.06672910      -0.23960727      -0.33220324       0.27667950
F        6.13787058       6.11093379       6.07824563      -0.40690510      -0.37542220      -0.47220984
F        4.08442293       6.09548388       4.09346225      -0.09188429       0.26255283      -0.22231198
F        6.14937868       4.04758150       4.04558212       0.15284668       0.04065480       0.05970616
F        4.08924036       4.11660637       6.12200878      -0.10364168      -0.20826167       0.12893208
64
Lattice="28.160000039244697 0.0 0.0 0.0 28.160000039244697 0.0 0.0 0.0 28.160000039244697" Properties=species:S:1:pos:R:3:REF_forces:R:3 config_type=LIF64_ISOLATED REF_energy=-32504.040131727335 pbc="T T T"
Li       0.10111850       0.03415906       0.01182601       0.62011537       0.75147612       0.89531006
Li      -0.00830720       2.05517948       2.05962854       0.26856715      -0.05477838      -0.08726761
Li       2.11543724       0.03716849       2.03453415      -0.08401311       0.19174773       0.06031345
Li       2.00548103       2.05514937       0.02263888       0.03474486      -0.00303056       0.27772388
F        2.01694579       2.04128908       2.00836091       0.13279542       0.02475535       0.19909594
F       -0.02281554       2.03857459      -0.00669768       0.05511931      -0.17960750      -0.09970610
F        2.08040933       0.00771093       0.04168810      -0.22076314      -0.04935695      -0.20268829
F       -0.04441108      -0.02885148       2.05607355       0.08972173       0.08287951      -0.19680946
Li       4.13520159       0.03079628      -0.01117399       0.14055912       0.35238357       0.49651242
Li       4.07977616       2.05301606       2.02071815       0.09620400      -0.16805244       0.03615562
Li       6.14759965       0.00024163       2.07613249      -0.53205920       0.49837698      -0.22826640
Li       6.06348125       2.04299053      -0.01109193      -0.28066753      -0.20575356       0.48530215
F        6.13739623       2.04694009       2.04831243       0.17304630       0.03769212      -0.04029459
F        4.09855489       2.05479746      -0.01320395      -0.08749875       0.03376733      -0.21143081
F        6.08918210      -0.00294336      -0.00720783      -0.32974090       0.42105208       0.36421193
F        4.09783684       0.00966872       2.05260347      -0.02274784      -0.17780567       0.06826047
Li       0.02978434       4.11990713      -0.02115383       0.34807723       0.07514023       0.48243871
Li       0.02565190       6.10865423       1.97653975       0.34902777      -0.39702307      -0.12828082
Li       2.07765660       4.08153671       2.06556617      -0.19161146      -0.04487758      -0.13703106
Li       2.02444536       6.03413098       0.07072443      -0.05904590      -0.20022903       0.22790258
F        2.01400709       6.10453928       2.02793605       0.14052261       0.20310841       0.13725654
F       -0.00254286       6.11113734       0.00417019       0.40470938      -0.43442233       0.35747950
F        2.04654077       4.05534346       0.00535875       0.05943953       0.03472763      -0.28476793
F        0.02672286       4.08327512       2.01364219      -0.32228675      -0.01166972       0.19502049
Li       4.09290753       4.04200272       0.00366192      -0.00228571       0.15924102       0.20951431
Li       4.10392088       6.09863457       2.06375130      -0.07324096      -0.17931413      -0.11701913
Li       6.08745203       4.08279824       2.06801724      -0.14924431      -0.07621675      -0.08688092
Li       6.11830390       6.10241498       0.05001063      -0.93131887      -0.80956685       0.72731700
F        6.09181093       6.08841887       2.07062385       0.13992355       0.15873965      -0.19776437
F        4.07762440       6.16758759      -0.01270178       0.14523802      -0.07482810       0.08537374
F        6.08334054       4.10285255      -0.01583810       0.14013875       0.10718183      -0.04079647
F        4.08803713       4.09814109       2.03243667      -0.09829610      -0.12253338       0.05021622
Li       0.02428535       0.02447389       4.05211318       0.33504328       0.33274626       0.20224143
Li      -0.00911403       2.04819352       6.13258941       0.36079956      -0.28263803      -0.46486316
Li       2.01425560       0.03956441       6.13586757      -0.23370814       0.29421031      -0.44749691
Li       2.00845531       2.02798902       4.13396975      -0.00715692      -0.05958454      -0.13930931
F        2.01775195       2.04250579       6.12811634       0.13816980       0.03472712       0.20774102
F       -0.03111968       2.04134578       4.09616599      -0.13236296       0.15561062      -0.10081733
F        2.04117784      -0.00313346       4.07768600       0.09120294      -0.10323391       0.05113976
F       -0.01924844       0.02176909       6.12120598       0.47836660       0.43199958      -0.35237252
Li       4.11407185       0.01817223       4.13473934      -0.01849832       0.25795672      -0.11094027
Li       4.04814659       2.02861414       6.10395976       0.19674724       0.06614086      -0.19156698
Li       6.13995302      -0.01843866       6.14228839      -0.89159404       0.92894806      -0.85822215
Li       6.13113994       2.07170447       4.11208932      -0.28810625      -0.14819582      -0.05763179
F        6.09644878       2.01337506       6.11929110       0.14498939      -0.09488322       0.03871439
F        4.09575449       2.05854432       4.08998784      -0.17009699      -0.03810683      -0.01161033
F        6.13496749      -0.00406335       4.08779153       0.08426893      -0.11589967       0.18657570
F        4.10078027      -0.01550325       6.16253223       0.03727920      -0.01935989      -0.02749383
Li      -0.00144445       4.10551671       4.06769830       0.24850098      -0.06051631      -0.04473102
Li       0.05778983       6.06603161       6.11062226       0.75540194      -0.66660117      -0.79617578
Li       2.00810338       4.06460885       6.08958786       0.18078249       0.08198194      -0.19452735
Li       1.98038397       6.05492079       4.06048956       0.11327715      -0.08505081       0.04548693
F        2.03986147       6.11276235       6.09300982      -0.20363806       0.06550888       0.11314217
F        0.00077923       6.15420279       4.09016659      -0.07031093      -0.13265761       0.12192094
F        2.04391217       4.08065595       4.06893013      -0.06434160      -0.09636932       0.00132875
F        0.02707103       4.07907822       6.12962423      -0.13474380       0.16586958       0.03843671
Li       4.07317183       4.04524912       4.02863381       0.03358709       0.09896433       0.23604295
Li       4.06959599       6.12686345       6.07855578       0.19301066      -0.51107283      -0.36717976
Li       6.09527644       4.11863999       6.00437754      -0.40313021       0.16188103      -0.13910517
Li       6.04483109       6.09634981       4.07618072      -0.23139748      -0.34604786       0.23823482
F        6.13986514       6.10813634       6.07928103      -0.42232401      -0.36309093      -0.47201546
F        4.08385089       6.10049910       4.08973378      -0.09284973       0.23991761      -0.18126946
F        6.14965075       4.04336164       4.04578121       0.13862231       0.06550734       0.06070812
F        4.09106273       4.11630004       6.12633714      -0.11891995      -0.20186579       0.11921357
64
Lattice="28.160000039244697 0.0 0.0 0.0 28.160000039244697 0.0 0.0 0.0 28.160000039244697" Properties=species:S:1:pos:R:3:REF_forces:R:3 config_type=LIF64_ISOLATED REF_energy=-32504.039428585176 pbc="T T T"
Li       0.09723477       0.02482481       0.01352876       0.63121894       0.77305796       0.89451199
Li      -0.00636375       2.05573991       2.05223313       0.26620431      -0.04561266      -0.06516178
Li       2.11798663       0.03337257       2.03698300      -0.09249364       0.20736564       0.04446414
Li       2.01232090       2.05615390       0.02474135       0.01885776      -0.01056389       0.26681032
F        2.01506885       2.04520254       2.00998996       0.16266958      -0.00485887       0.17284730
F       -0.02476897       2.03930708      -0.00678545       0.05889575      -0.18158416      -0.09438957
F        2.07900204       0.00616776       0.04189599      -0.20830744      -0.05627296      -0.18528578
F       -0.04627174      -0.02721016       2.05441654       0.09467470       0.06614266      -0.20379155
Li       4.14177720       0.02065113      -0.00908478       0.12102311       0.37048568       0.48833579
Li       4.08409476       2.05088910       2.02219580       0.08580414      -0.15787216       0.04495111
Li       6.13862316      -0.00234091       2.07806181      -0.50801656       0.49803142      -0.22545669
Li       6.06046036       2.04741610      -0.01107607      -0.27747680      -0.21879754       0.48782312
F        6.13838344       2.04425246       2.05372858       0.16458608       0.05299044      -0.05611433
F        4.10252493       2.04976822      -0.01214071      -0.10600118       0.05319535      -0.19540461
F        6.08485110      -0.00345449      -0.00223459      -0.31571604       0.40478574       0.35764096
F        4.09985329       0.00555712       2.05902615      -0.03980299      -0.18191146       0.05635447
Li       0.02667805       4.11062857      -0.02196201       0.35953818       0.10688924       0.48229859
Li       0.02389690       6.11491960       1.98491711       0.36851982      -0.41315185      -0.14509455
Li       2.07864340       4.08164397       2.06376441      -0.20148141      -0.02757997      -0.11912744
Li       2.02289677       6.03735620       0.07342382      -0.07721100      -0.20600630       0.23094291
F        2.02143959       6.11010692       2.03654398       0.11249373       0.19614329       0.09580676
F       -0.00092291       6.11271059       0.00229951       0.40617748      -0.43122054       0.37693426
F        2.04683630       4.05853321      -0.00482776       0.07420872       0.00645887      -0.25207687
F        0.03199396       4.08783136       2.01194213      -0.33445141      -0.02371611       0.18757637
Li       4.09135658       4.04575665       0.00291323      -0.01795607       0.15439423       0.20562243
Li       4.11523263       6.09573177       2.05310209      -0.13243187      -0.16564049      -0.08921497
Li       6.08888979       4.08697208       2.06607740      -0.15281300      -0.09380413      -0.07376058
Li       6.12133170       6.10528776       0.05227612      -0.93651610      -0.81375261       0.71947668
F        6.09178947       6.08866455       2.07662401       0.15098289       0.16873919      -0.24485387
F        4.06980818       6.16409224      -0.01024712       0.19284636      -0.06192579       0.08207167
F        6.07757718       4.10078473      -0.01314415       0.16083176       0.12641574      -0.04007090
F        4.08993394       4.10566132       2.03475152      -0.09039947      -0.16518258       0.01871172
Li       0.02770247       0.02531378       4.04391704       0.31532678       0.34391693       0.21766265
Li      -0.01500989       2.04906008       6.13531766       0.37523039      -0.28587093      -0.47976425
Li       2.01182824       0.03407341       6.13506691      -0.24503796       0.31377614      -0.43419685
Li       2.01559834       2.01791586       4.13480010      -0.03052208      -0.01917246      -0.14414144
F        2.01607804       2.04274246       6.12613689       0.14457313       0.02828651       0.21147298
F       -0.03050694       2.03891277       4.09608005      -0.13605558       0.15129091      -0.10617062
F        2.03788535      -0.00436996       4.07645572       0.11181856      -0.12270384       0.04837042
F       -0.01851993       0.02062521       6.12452686       0.48306658       0.42702655      -0.35379022
Li       4.11465794       0.00763353       4.13599808      -0.01150260       0.29045727      -0.10265644
Li       4.03765364       2.03093394       6.10264414       0.23004174       0.06697724      -0.18857885
Li       6.13289521      -0.01805592       6.13828632      -0.87598899       0.94716072      -0.84229854
Li       6.13316705       2.06944882       4.10441433      -0.29686754      -0.14550901      -0.02488879
F        6.09794309       2.01173517       6.11737873       0.14469963      -0.08451936       0.02230226
F        4.09508457       2.05810917       4.09196688      -0.17315711      -0.03907331      -0.03555707
F        6.13194560      -0.00354315       4.08794104       0.08181147      -0.13832432       0.18136382
F        4.10205050      -0.00786091       6.16550343       0.01485095      -0.05633030      -0.04188019
Li       0.00366250       4.10531105       4.06927178       0.25129551      -0.06804399      -0.05236360
Li       0.06327987       6.06886064       6.10601046       0.74685662      -0.66560590      -0.79181158
Li       2.00845937       4.06300764       6.08605457       0.17529858       0.08543544      -0.20045837
Li       1.98690380       6.05552922       4.06114571       0.10807041      -0.08701076       0.03303430
F        2.03860955       6.11753734       6.08865115      -0.19109570       0.05022804       0.11863379
F        0.00276545       6.15362791       4.09253439      -0.08087431      -0.12254469       0.10982570
F        2.04250769       4.07917879       4.06198963      -0.04740446      -0.09255329       0.03902652
F        0.02798440       4.07864071       6.12764946      -0.13247583       0.16613594       0.04378743
Li       4.07829620       4.05137994       4.02359293       0.00509413       0.07889301       0.24605354
Li       4.07325189       6.12113655       6.07398995       0.18724650      -0.49577014      -0.34640036
Li       6.09430737       4.12102515       5.99338164      -0.39415731       0.14783278      -0.10281327
Li       6.03579559       6.09397135       4.07042415      -0.20586900      -0.33247346       0.26574742
F        6.14041898       6.10598292       6.08049746      -0.42671751      -0.36000432      -0.48790462
F        4.08322715       6.09648865       4.09163791      -0.07620261       0.25011640      -0.18666877
F        6.14809012       4.04770804       4.04269269       0.14255044       0.04986449       0.04854860
F        4.09171225       4.11786503       6.12513746      -0.13236065      -0.20752942       0.11313728
64
Lattice="28.160000039244697 0.0 0.0 0.0 28.160000039244697 0.0 0.0 0.0 28.160000039244697" Properties=species:S:1:pos:R:3:REF_forces:R:3 config_type=LIF64_ISOLATED REF_energy=-32504.071683599042 pbc="T T T"
Li       0.10181887       0.02344384       0.02042582       0.62054629       0.77632146       0.87148853
Li      -0.00585446       2.05687049       2.04910577       0.26273100      -0.04557126      -0.06384923
Li       2.11117292       0.03757049       2.03384667      -0.07318542       0.19382955       0.04738466
Li       2.01345126       2.05378940       0.02606210       0.01130565       0.00076207       0.23826387
F        2.01833117       2.04160867       2.00031049       0.15198665       0.00256365       0.22359264
F       -0.02355883       2.03780910      -0.00920648       0.04401780      -0.17928842      -0.06986484
F        2.08022344       0.00727891       0.04068894      -0.20780196      -0.07280644      -0.18152631
F       -0.04414092      -0.02705819       2.05239981       0.09615849       0.05903793      -0.19259568
Li       4.14572038       0.02029132      -0.00834956       0.10740372       0.36853576       0.48572047
Li       4.07460724       2.05576864       2.02457245       0.10221575      -0.17627895       0.04146598
Li       6.14065193       0.00431225       2.08120037      -0.52291482       0.49248427      -0.23783167
Li       6.05399333       2.04460892      -0.01020281      -0.25786956      -0.22485583       0.48007895
F        6.14035848       2.04699594       2.05525114       0.16017741       0.03158960      -0.06121102
F        4.09951763       2.04733124      -0.01499835      -0.07242129       0.06602002      -0.18358551
F        6.08869217      -0.00116918      -0.00899143      -0.32860730       0.41189381       0.37975117
F        4.09712514       0.00382184       2.06323948      -0.01757915      -0.17826847       0.03538224
Li       0.01931629       4.11927744      -0.01236234       0.38265626       0.09552985       0.46317472
Li       0.02342177       6.11017807       1.99634116       0.37347099      -0.39484020      -0.15765208
Li       2.08209963       4.07123924       2.06583084      -0.20882577       0.00538363      -0.14137854
Li       2.02924700       6.03810031       0.07879443      -0.10536047      -0.21968971       0.22631133
F        2.01792516       6.11334708       2.03533442       0.13881000       0.19329862       0.10691881
F       -0.00380963       6.11691910       0.00456701       0.40884140      -0.45247533       0.38930821
F        2.04562747       4.05010511       0.00114980       0.08222954       0.05859390      -0.25890752
F        0.03339202       4.08833565       2.01980803      -0.34367473      -0.03185623       0.16484885
Li       4.10070053       4.04763996       0.00056156      -0.06491136       0.13777539       0.21714560
Li       4.11664510       6.10924177       2.04806376      -0.13963893      -0.20597750      -0.07683562
Li       6.08608946       4.08384494       2.06361868      -0.14798164      -0.08255041      -0.05554251
Li       6.11856359       6.09272940       0.05121868      -0.91225877      -0.78271168       0.72010712
F        6.09398692       6.08745657       2.07320149       0.12849757       0.17836771      -0.24496391
F        4.07026839       6.16527364      -0.01164263       0.19910417      -0.07430565       0.08310628
F        6.08161116       4.09796724      -0.00845977       0.13987907       0.12642886      -0.05621897
F        4.08624150       4.10886892       2.03638778      -0.07241538      -0.17453214       0.00951591
Li       0.02518130       0.02204634       4.04997527       0.32015171       0.35415892       0.19777183
Li      -0.01999924       2.04588437       6.13457505       0.39597560      -0.27793317      -0.48027230
Li       2.01297163       0.03038101       6.12730737      -0.24436382       0.32612567      -0.41586591
Li       2.01779598       2.01412667       4.13781040      -0.03940164      -0.01698754      -0.14269134
F        2.01716285       2.04289818       6.12768576       0.13923783       0.03002843       0.19975929
F       -0.02901064       2.03770248       4.09184585      -0.13654563       0.14243397      -0.07975716
F        2.03838449      -0.00262254       4.07493440       0.10273151      -0.13167005       0.06553099
F       -0.01879253       0.01904954       6.12249067       0.47644290       0.42591044      -0.36126982
Li       4.11699008      -0.00176883       4.13900544      -0.03075194       0.31011207      -0.13257533
Li       4.04019716       2.03032923       6.09864489       0.20834035       0.06501523      -0.17422232
Li       6.12559769      -0.01405254       6.13567766      -0.86395417       0.93543495      -0.82209455
Li       6.14465029       2.06404627       4.10587659      -0.32768298      -0.11884436      -0.04595898
F        6.09918076       2.01307782       6.12023330       0.13842151      -0.09238796       0.00055664
F        4.09620419       2.05736841       4.08934497      -0.17626635      -0.02797129      -0.00868956
F        6.12450622      -0.00000946       4.08643884       0.11167021      -0.14515343       0.20111735
F        4.09717316      -0.00852294       6.16597411       0.03517269      -0.05854068      -0.05159458
Li       0.01301550       4.10252445       4.07529203       0.23239559      -0.06233485      -0.06681243
Li       0.06661252       6.07112152       6.11003816       0.73399467      -0.65828134      -0.80811058
Li       2.00975814       4.07272964       6.09105462       0.16632389       0.04840744      -0.20665447
Li       1.99188929       6.05502022       4.06130267       0.09426050      -0.07910102       0.01340856
F        2.03948986       6.12171116       6.08502575      -0.17937867       0.02914525       0.13343665
F        0.00595297       6.15542681       4.09407203      -0.07986284      -0.12511219       0.11692837
F        2.03906899       4.07364321       4.05741373      -0.01302007      -0.07577401       0.07926248
F        0.03034869       4.08217030       6.12764955      -0.12883644       0.15734149       0.05133722
Li       4.07729394       4.04586801       4.03117281       0.01346950       0.09383292       0.20412785
Li       4.07114941       6.11448250       6.07558090       0.20378384      -0.46758751      -0.34211099
Li       6.09296302       4.11626362       5.98827241      -0.37739963       0.17099584      -0.09069412
Li       6.02475670       6.09810853       4.06902957      -0.17193610      -0.34108872       0.26409497
F        6.14023663       6.10511665       6.08169949      -0.44166307      -0.36755874      -0.49532482
F        4.08179350       6.09927324       4.09039760      -0.08685161       0.24149266      -0.17429380
F        6.14699408       4.05147743       4.03774610       0.13440313       0.02121340       0.08369686
F        4.09207831       4.11803144       6.13094092      -0.14344570      -0.20772997       0.08636181
64
Lattice="28.160000039244697 0.0 0.0 0.0 28.160000039244697 0.0 0.0 0.0 28.160000039244697" Properties=species:S:1:pos:R:3:REF_forces:R:3 config_type=LIF64_ISOLATED REF_energy=-32504.07068153983 pbc="T T T"
Li       0.10119852       0.02140262       0.01710477       0.64193247       0.78510743       0.87595171
Li      -0.00703636       2.04950204       2.05429841       0.26653135      -0.02131367      -0.09462097
Li       2.11744580       0.03817718       2.03821700      -0.07992917       0.18644123       0.02133836
Li       2.01073536       2.06402616       0.02834323       0.02096246      -0.03708868       0.22719476
F        2.01974498       2.04048581       1.99813947       0.13930160       0.01309437       0.25649351
F       -0.02221538       2.03745155      -0.00962923       0.03655106      -0.17837260      -0.07442135
F        2.08280422       0.00727381       0.04329959      -0.22039573      -0.08240077      -0.18101466
F       -0.04682509      -0.02600851       2.05037723       0.08895657       0.07389453      -0.16875256
Li       4.15423134       0.01768509       0.00162487       0.05523989       0.38086214       0.47070985
Li       4.06880672       2.06001824       2.03505657       0.11531526      -0.18340373       0.01275833
Li       6.13820595       0.00287438       2.07042565      -0.52829537       0.49104008      -0.20608986
Li       6.05787055       2.04357792      -0.02034654      -0.29017419      -0.22572409       0.49970316
F        6.13189155       2.04728458       2.05786134       0.18488983       0.03049508      -0.09015830
F        4.09697266       2.04762025      -0.01960509      -0.02936688       0.07680322      -0.17692841
F        6.08865617      -0.00442691      -0.00474757      -0.30691618       0.41585511       0.37904103
F        4.09275129       0.00505495       2.06485215       0.01247551      -0.18070279       0.02926661
Li       0.02211914       4.11901083      -0.01991280       0.37900812       0.09377739       0.49051815
Li       0.02115145       6.11159343       1.99221648       0.38588350      -0.40921626      -0.15818507
Li       2.08714266       4.06580299       2.06831347      -0.22698547       0.03169399      -0.16397442
Li       2.03615169       6.04257012       0.06901710      -0.12134450      -0.24829889       0.26827765
F        2.01961424       6.11372968       2.03273165       0.14166984       0.19798111       0.10629018
F       -0.00420734       6.11216832       0.00792708       0.40553984      -0.42699082       0.35666086
F        2.04310831       4.04977888       0.00169487       0.09898721       0.07249431      -0.27577781
F        0.03105639       4.08966430       2.01967138      -0.33157049      -0.05019282       0.18827931
Li       4.11216817       4.04617908      -0.00397607      -0.11153163       0.12284011       0.22478024
Li       4.11913802       6.10840082       2.04721921      -0.15890035      -0.21208053      -0.05980617
Li       6.08114640       4.08468478       2.05657864      -0.14700334      -0.09103402      -0.01574132
Li       6.11329381       6.08734614       0.05525899      -0.89239854      -0.75623729       0.70403875
F        6.09485830       6.08747222       2.07783552       0.11905519       0.16770560      -0.26794212
F        4.07484167       6.16273854      -0.01363951       0.20215864      -0.07235110       0.07918046
F        6.08323716       4.09846063      -0.01510723       0.14166470       0.11788842      -0.03849224
F        4.08173368       4.10835965       2.03814725      -0.03787235      -0.16835815      -0.01165687
Li       0.02313154       0.03246158       4.04452933       0.32881890       0.32255440       0.21276779
Li      -0.02271611       2.05056181       6.12891011       0.39170217      -0.28049733      -0.46560339
Li       2.00898810       0.03382255       6.13229883      -0.24411982       0.31141124      -0.43078294
Li       2.02240640       2.01494983       4.13921700      -0.04292688      -0.02665334      -0.14728950
F        2.01513694       2.04141367       6.12451315       0.16466193       0.04760783       0.21643649
F       -0.02436432       2.04032469       4.09843219      -0.14443481       0.13410000      -0.11468380
F        2.04300352      -0.00473249       4.07470646       0.07859785      -0.10960279       0.06571817
F       -0.02131038       0.02329772       6.12195387       0.47724688       0.42649382      -0.36011899
Li       4.11570336       0.00007911       4.14620817      -0.02500038       0.29588589      -0.14049408
Li       4.03625048       2.03819677       6.10149974       0.23381149       0.02939517      -0.18383979
Li       6.12614197      -0.01898852       6.13614984      -0.86854847       0.94302202      -0.82742188
Li       6.14918271       2.05888782       4.09845112      -0.33775014      -0.11177331      -0.02730203
F        6.09975946       2.00783805       6.12115219       0.12421488      -0.07478182      -0.00386077
F        4.09630420       2.06310227       4.08785013      -0.18668446      -0.04386379       0.01851503
F        6.12241179      -0.00426901       4.08576173       0.11720219      -0.13535984       0.19130936
F        4.09653467      -0.01167973       6.16278001       0.02807902      -0.04355886      -0.03507345
Li       0.01734337       4.10226779       4.07382703       0.21941666      -0.05074149      -0.06922901
Li       0.06781640       6.07344222       6.10853340       0.73446261      -0.65920540      -0.80247729
Li       2.01485424       4.06887551       6.08946674       0.13213748       0.07646332      -0.19740236
Li       1.98858678       6.05122167       4.05744397       0.10233119      -0.06303959       0.01883307
F        2.03642333       6.12162015       6.09126702      -0.15638786       0.02248507       0.11778429
F        0.00754309       6.15946710       4.09513233      -0.07437636      -0.13415991       0.11078858
F        2.04416260       4.07205182       4.05774698      -0.03608800      -0.07505821       0.08795281
F        0.03013115       4.08489811       6.12577102      -0.12155919       0.14401957       0.04757518
Li       4.07558702       4.04716910       4.04478955       0.02353588       0.09913788       0.15455570
Li       4.07677795       6.11458304       6.08086702       0.17376081      -0.44849064      -0.35114610
Li       6.08947586       4.12280138       5.98433166      -0.35136233       0.14358686      -0.08727224
Li       6.02370221       6.09702826       4.07594115      -0.16934931      -0.33774294       0.23583341
F        6.14015275       6.11115075       6.08288794      -0.45283683      -0.38432387      -0.49679498
F        4.08059658       6.09318530       4.09028003      -0.07524205       0.25439317      -0.15153799
F        6.14917931       4.04928258       4.03546656       0.13022560       0.03712853       0.10996608
F        4.08991195       4.12143871       6.13014044      -0.12697727      -0.22303934       0.09737256
64
Lattice="28.160000039244697 0.0 0.0 0.0 28.160000039244697 0.0 0.0 0.0 28.160000039244697" Properties=species:S:1:pos:R:3:REF_forces:R:3 config_type=LIF64_ISOLATED REF_energy=-32504.095606215054 pbc="T T T"
Li       0.10480821       0.02592613       0.01508554       0.62875865       0.76876164       0.88239463
Li      -0.01437203       2.05075009       2.05786128       0.27552559      -0.02195645      -0.09171434
Li       2.11763872       0.04124164       2.03664456      -0.06420739       0.17909508       0.03006237
Li       2.00502270       2.05956344       0.03028507       0.05214274      -0.02160292       0.22105162
F        2.02299610       2.03580629       1.99328104       0.12454527       0.03891879       0.27575236
F       -0.02734968       2.03811901      -0.00394604       0.05011749      -0.18508960      -0.09195962
F        2.08549727       0.00415648       0.04057086      -0.24645695      -0.07888736      -0.17483167
F       -0.05055127      -0.02389565       2.05622149       0.10354578       0.07559892      -0.18048604
Li       4.15916657       0.01020204      -0.00048424       0.02792758       0.40599082       0.47970640
Li       4.06559139       2.06258893       2.03902394       0.11934624      -0.21825298      -0.00401812
Li       6.13950280       0.00336581       2.06415810      -0.54335252       0.49154402      -0.19227892
Li       6.06623824       2.05062267      -0.02097016      -0.33070377      -0.24540691       0.50712464
F        6.13487657       2.04557149       2.05581541       0.17642113       0.05307914      -0.09760139
F        4.08623454       2.05270799      -0.02126775       0.02857524       0.07168621      -0.17196001
F        6.07853662      -0.00150332      -0.00471927      -0.25686709       0.40805438       0.35619395
F        4.09938326       0.00574735       2.06295008      -0.01658002      -0.18134376       0.03199044
Li       0.02414730       4.11075091      -0.02281510       0.37476708       0.11543688       0.50502868
Li       0.02018066       6.11644755       1.98818698       0.38634784      -0.42646682      -0.15127728
Li       2.09569318       4.06771130       2.06365316      -0.26933745       0.02661657      -0.16149330
Li       2.03398106       6.04009707       0.06721252      -0.11866618      -0.24722982       0.26179589
F        2.01613449       6.11561481       2.03058841       0.17868447       0.19559847       0.12194511
F       -0.00456788       6.10817675       0.00802924       0.39986336      -0.41695194       0.34487081
F        2.04455206       4.05297338       0.00031213       0.08809576       0.04890932      -0.26579499
F        0.03186898       4.09000511       2.01916405      -0.32632647      -0.06163140       0.18704647
Li       4.11977955       4.03601703      -0.00642597      -0.15276955       0.14145952       0.21130020
Li       4.11167199       6.10594258       2.04625260      -0.13064598      -0.18968545      -0.08291911
Li       6.06808314       4.07926937       2.05722012      -0.09422733      -0.07356338       0.00376564
Li       6.11798423       6.08289478       0.05990857      -0.89997455      -0.73895922       0.70982476
F        6.09675290       6.08751144       2.08092815       0.09445847       0.15346015      -0.27557469
F        4.07128419       6.16223930      -0.01047915       0.21885307      -0.07827955       0.08390564
F        6.08174265       4.09758177      -0.01319387       0.14983489       0.10703760      -0.04344727
F        4.08413774       4.10867835       2.04389557      -0.04589651      -0.16825710      -0.03203929
Li       0.02656735       0.03200067       4.04863735       0.32835584       0.32751920       0.21053967
Li      -0.02824747       2.05510970       6.12665391       0.41112402      -0.28701687      -0.45904090
Li       2.01015582       0.03493599       6.13190408      -0.24923271       0.31704890      -0.42361804
Li       2.02296629       2.02375815       4.13889089      -0.04180228      -0.04545530      -0.13306693
F        2.01469810       2.03666788       6.12990200       0.16947401       0.06832784       0.19580930
F       -0.02435495       2.04605475       4.09727999      -0.14149012       0.11929559      -0.11341599
F        2.04826894      -0.00040175       4.07664002       0.06732974      -0.11247265       0.05411247
F       -0.01738565       0.02441911       6.12177176       0.45966697       0.41972102      -0.36953360
Li       4.11457197       0.00709357       4.14988854      -0.02720716       0.27965632      -0.16032191
Li       4.03648532       2.02982065       6.10416665       0.22352939       0.05250475      -0.18577017
Li       6.12344940      -0.00996135       6.12795946      -0.85139587       0.92204156      -0.80452749
Li       6.14797860       2.05279681       4.09941397      -0.32858313      -0.09118289      -0.02694285
F        6.10063970       2.00388913       6.12275633       0.11816610      -0.07646718      -0.00757781
F        4.09783413       2.06334914       4.08697061      -0.18381948      -0.04179534       0.01411201
F        6.12333420      -0.00266041       4.08171213       0.11529032      -0.12962011       0.20714298
F        4.09570691      -0.00977583       6.16556938       0.03742395      -0.04309580      -0.04698305
Li       0.02116431       4.10171241       4.06770110       0.21937732      -0.03873213      -0.06830187
Li       0.06487946       6.07197097       6.10698463       0.74399189      -0.66255991      -0.80787969
Li       2.01584078       4.06780093       6.09095153       0.13501763       0.07217472      -0.19710900
Li       1.99741599       6.05609126       4.05640114       0.05735360      -0.08121755       0.02635998
F        2.03177591       6.12027192       6.09397647      -0.13127204       0.02912160       0.10144365
F        0.01112954       6.16078253       4.09085870      -0.07782884      -0.13291164       0.12233360
F        2.04727950       4.07124636       4.05558853      -0.03230488      -0.06627867       0.07781367
F        0.03300685       4.08015869       6.12363509      -0.13568843       0.15888363       0.04967783
Li       4.07843341       4.05538702       4.03820764       0.01707058       0.05468248       0.19901470
Li       4.08246688       6.11732279       6.07507544       0.15214400      -0.45983717      -0.31970845
Li       6.08450398       4.12879192       5.98725568      -0.34459879       0.11688775      -0.09525397
Li       6.01651528       6.09388910       4.08097707      -0.12162526      -0.33134552       0.20845707
F        6.13590936       6.11239046       6.08357939      -0.46290218      -0.37964318      -0.48807714
F        4.08398982       6.09014177       4.09176517      -0.10811232       0.26989898      -0.16005400
F        6.15342315       4.04907580       4.04045076       0.10699877       0.03584555       0.09323720
F        4.08562305       4.11612262       6.12455723      -0.10624955      -0.19166134       0.11076441
64
Lattice="28.160000039244697 0.0 0.0 0.0 28.160000039244697 0.0 0.0 0.0 28.160000039244697" Properties=species:S:1:pos:R:3:REF_forces:R:3 config_type=LIF64_ISOLATED REF_energy=-32504.072580486256 pbc="T T T"
Li       0.10314345       0.02581675       0.01980058       0.63589912       0.76577094       0.87476720
Li      -0.01214162       2.05077260       2.05333664       0.27734541      -0.02082234      -0.06891276
Li       2.11549417       0.03713369       2.03532019      -0.04882062       0.19141837       0.03857863
Li       2.00118718       2.06825913       0.02924548       0.05893020      -0.05826660       0.23213076
F        2.02330530       2.03509677       1.99836460       0.12524923       0.06307790       0.24450934
F       -0.03029974       2.03917059      -0.00576500       0.05379931      -0.17848161      -0.08894269
F        2.08769427       0.00598718       0.04029441      -0.27066954      -0.07933293      -0.17704051
F       -0.05113652      -0.02179709       2.05593896       0.09268261       0.07004302      -0.19273452
Li       4.16078043       0.01255317      -0.00719503       0.01138382       0.40622093       0.49609975
Li       4.06098883       2.06809374       2.04193044       0.13269901      -0.25335728      -0.00610483
Li       6.13585308      -0.00579195       2.06368920      -0.54963784       0.51239258      -0.19123017
Li       6.06835249       2.05031535      -0.01621623      -0.33569634      -0.24934173       0.51374215
F        6.13301846       2.04432147       2.06024385       0.18217577       0.06200704      -0.11352295
F        4.08713990       2.04669661      -0.02248643       0.01725673       0.12118818      -0.17385722
F        6.07356515      -0.00132040      -0.00396302      -0.22351011       0.39802862       0.34411285
F        4.10199615       0.00477978       2.05945304      -0.02054851      -0.18203642       0.05984525
Li       0.01966813       4.10950642      -0.03144192       0.38110871       0.12877679       0.52948939
Li       0.02243222       6.11241694       1.98595731       0.37468018      -0.41570881      -0.14843493
Li       2.09689170       4.07317116       2.06165230      -0.28110514       0.01252641      -0.16226798
Li       2.04015685       6.04770469       0.06158268      -0.12974609      -0.25989534       0.28452959
F        2.02029537       6.11644126       2.02628903       0.18385830       0.19192642       0.13523617
F       -0.00526080       6.11258084       0.01468023       0.39928795      -0.42082017       0.31520285
F        2.03763791       4.05320536       0.00032011       0.12068990       0.05137964      -0.27599738
F        0.03492037       4.09156470       2.02004175      -0.32618377      -0.07002117       0.18706601
Li       4.11973458       4.02858331      -0.00518356      -0.13809986       0.14624255       0.20949220
Li       4.12054156       6.10229931       2.04969226      -0.15089187      -0.18004973      -0.10663907
Li       6.06734304       4.08383126       2.06526672      -0.08157879      -0.09842491      -0.02023098
Li       6.11381687       6.08443616       0.05793659      -0.89386355      -0.74438913       0.70873153
F        6.09533909       6.08815844       2.07890746       0.09937674       0.15408107      -0.25118675
F        4.07416247       6.16390094      -0.00747310       0.20790146      -0.07968466       0.06891045
F        6.08077888       4.09937777      -0.01101587       0.14534600       0.09816420      -0.04837736
F        4.08732505       4.10558754       2.04492941      -0.06708265      -0.15776880      -0.04341359
Li       0.01918828       0.03111417       4.05277498       0.35078280       0.33205797       0.20517069
Li      -0.02580497       2.05980914       6.12426231       0.39289593      -0.30091497      -0.45417200
Li       2.01287915       0.03560074       6.13853446      -0.25908569       0.31068748      -0.44478773
Li       2.02484790       2.03067947       4.14685842      -0.04454668      -0.07781958      -0.16346560
F        2.01699413       2.03935050       6.12903224       0.14748928       0.05926933       0.20704040
F       -0.02402255       2.04222683       4.09979980      -0.13432523       0.13962787      -0.10482079
F        2.04834510      -0.00405050       4.06992211       0.06622699      -0.09953512       0.09315544
F       -0.02393803       0.01959552       6.12687682       0.48730144       0.43914596      -0.37951231
Li       4.11295831       0.01140363       4.15065187      -0.03196730       0.27695872      -0.17490675
Li       4.04176838       2.02989676       6.10788537       0.22683378       0.05752175      -0.19952378
Li       6.12028718      -0.01809645       6.12347615      -0.83772249       0.93655544      -0.80689548
Li       6.15128755       2.05021981       4.09849614      -0.32939791      -0.09545632      -0.02458206
F        6.10007828       2.00032632       6.11788524       0.12165715      -0.07262775       0.01902128
F        4.09934931       2.06802815       4.09306758      -0.20097028      -0.06525177      -0.01050887
F        6.12973492       0.00044168       4.08359538       0.09425716      -0.15420371       0.20283690
F        4.09429244      -0.00973632       6.16283815       0.03296540      -0.05117678      -0.03519917
Li       0.02977122       4.10417464       4.07054826       0.19075194      -0.03952043      -0.08141707
Li       0.06325289       6.07679672       6.10349585       0.74386720      -0.65940157      -0.81414650
Li       2.01487603       4.07147891       6.09206770       0.13891619       0.07073028      -0.19770009
Li       2.00372646       6.05546138       4.04267577       0.03405760      -0.06876570       0.04919857
F        2.03137979       6.12434117       6.09297090      -0.11625140       0.01468820       0.09753506
F        0.01000804       6.16518054       4.08825216      -0.05630125      -0.14213058       0.12345383
F        2.04908891       4.07658585       4.05484146      -0.03991278      -0.07548682       0.08367115
F        0.02863561       4.08234353       6.12189612      -0.11011032       0.16022395       0.04655934
Li       4.08246499       4.05359950       4.03768581       0.01129511       0.03659657       0.20924589
Li       4.07680282       6.11446200       6.07478822       0.15321127      -0.45964768      -0.31326321
Li       6.08296763       4.13201096       5.98833489      -0.33547625       0.09777031      -0.09772377
Li       6.00885097       6.09183323       4.08116311      -0.08505106      -0.32767013       0.21399960
F        6.13815462       6.10783651       6.08646897      -0.48434004      -0.37467169      -0.50073288
F        4.08496916       6.08427761       4.08680248      -0.10992674       0.28291956      -0.13716758
F        6.15177988       4.04532134       4.04082589       0.11147866       0.07175023       0.09459654
F        4.08557725       4.10895944       6.12381104      -0.11083897      -0.14706659       0.12148977
64
Lattice="28.160000039244697 0.0 0.0 0.0 28.160000039244697 0.0 0.0 0.0 28.160000039244697" Properties=species:S:1:pos:R:3:REF_forces:R:3 config_type=LIF64_ISOLATED REF_energy=-32504.116707010555 pbc="T T T"
Li       0.10400182       0.02921775       0.02937161       0.61977573       0.75116913       0.85244771
Li      -0.00519376       2.04715248       2.05253596       0.24755507      -0.00970591      -0.05205275
Li       2.12130359       0.04069816       2.02821745      -0.06640337       0.17390942       0.05609119
Li       1.99953877       2.07057949       0.03934739       0.06181575      -0.05523167       0.18806925
F        2.02081708       2.03705371       2.00175094       0.14445949       0.04912041       0.23714544
F       -0.03270533       2.03744104      -0.00562158       0.06996614      -0.17085238      -0.07493532
F        2.08707366       0.00760629       0.03755855      -0.25949630      -0.07547808      -0.14725813
F       -0.05301689      -0.02389638       2.05653408       0.10881243       0.08195006      -0.19999043
Li       4.16534941       0.01546601      -0.00972963       0.00383454       0.40499708       0.48283955
Li       4.06578892       2.06325929       2.04001572       0.13362435      -0.23814509      -0.01125860
Li       6.13433222      -0.00440505       2.06262287      -0.52656501       0.51292917      -0.18324638
Li       6.06802087       2.04845418      -0.01635894      -0.32253692      -0.23275194       0.50787181
F        6.13710761       2.03961787       2.05615800       0.16072454       0.08266637      -0.08854674
F        4.08168579       2.04656883      -0.01971980       0.03509196       0.11010698      -0.16774494
F        6.07748105       0.00329011      -0.00646813      -0.24089180       0.39139184       0.34262135
F        4.10527507       0.00787800       2.06029664      -0.03740158      -0.18788336       0.05116058
Li       0.02086893       4.10684163      -0.03373685       0.37702348       0.12823171       0.53615934
Li       0.02423706       6.11340588       1.97238099       0.36572297      -0.41957395      -0.10552399
Li       2.10055507       4.06969891       2.07049054      -0.30106847       0.03292838      -0.18824486
Li       2.03956249       6.05086890       0.05666350      -0.12199936      -0.27553047       0.29947310
F        2.01981531       6.12310752       2.03118246       0.21057926       0.17911539       0.10323442
F       -0.00982305       6.11261435       0.01797187       0.41074633      -0.41347658       0.29258203
F        2.03791123       4.05714990      -0.00498874       0.10871010       0.04109214      -0.25434767
F        0.03846261       4.09108851       2.01866350      -0.31655576      -0.07517391       0.17872818
Li       4.11634428       4.02744186       0.00139523      -0.12157076       0.15378642       0.18861818
Li       4.12141924       6.11294368       2.05403011      -0.15982851      -0.20860774      -0.13417328
Li       6.06899789       4.08020704       2.07042534      -0.07426631      -0.09616080      -0.05405153
Li       6.10618173       6.08676525       0.06620574      -0.87397324      -0.75762954       0.68110965
F        6.09579247       6.08834215       2.07577839       0.07851429       0.15710649      -0.21859519
F        4.07495763       6.16001183      -0.00901462       0.19651481      -0.05596700       0.08615407
F        6.08500615       4.10060189      -0.01180175       0.12220325       0.08388018      -0.03305230
F        4.08653202       4.09898312       2.03816767      -0.06044098      -0.12423930       0.01524484
Li       0.02322483       0.03345518       4.05589087       0.33579893       0.33310930       0.20308912
Li      -0.02035643       2.06162925       6.12568330       0.37289738      -0.30647061      -0.46063550
Li       2.01647541       0.03475825       6.14019116      -0.27393382       0.31221883      -0.44655151
Li       2.03974619       2.03313453       4.14782901      -0.08712157      -0.08876065      -0.15951561
F        2.01928807       2.03986053       6.13115078       0.14705065       0.04804749       0.19557122
F       -0.02372415       2.04444751       4.10019357      -0.11846718       0.13801913      -0.10601944
F        2.04533523      -0.00525868       4.07011437       0.09607801      -0.09288882       0.08876862
F       -0.02872283       0.02226719       6.12580023       0.50704263       0.43772209      -0.37349850
Li       4.10887736       0.00742050       4.14730719      -0.02122857       0.27112823      -0.17023351
Li       4.04487998       2.02447339       6.11096553       0.21742482       0.08191149      -0.18890126
Li       6.11323668      -0.01502632       6.12129363      -0.81453962       0.91901306      -0.80564772
Li       6.13984253       2.05191593       4.10466905      -0.29468082      -0.11262486      -0.03882391
F        6.09980949       1.99694920       6.11544214       0.11246262      -0.07221766       0.02307642
F        4.09824924       2.06641422       4.09089743      -0.19693596      -0.04778318      -0.00487301
F        6.12923044      -0.00119438       4.08364936       0.07367650      -0.15020667       0.20306496
F        4.09236595      -0.01114694       6.16149357       0.02923704      -0.04779835      -0.03527296
Li       0.02807938       4.10039797       4.06776520       0.18122755      -0.02220225      -0.08273270
Li       0.06701113       6.07875195       6.10526440       0.72684881      -0.66341635      -0.82957878
Li       2.00570754       4.06836774       6.08478112       0.15545841       0.07813043      -0.17189136
Li       2.00713545       6.05910611       4.03876656      -0.01383125      -0.06978694       0.05391603
F        2.02592720       6.12322961       6.09110937      -0.07429897       0.02950161       0.10041032
F        0.01224198       6.16459119       4.08511433      -0.05945213      -0.13760390       0.13270929
F        2.04611462       4.07830632       4.05897430       0.00663885      -0.08423165       0.06605601
F        0.02801117       4.08381875       6.12203964      -0.10893867       0.14910573       0.05189232
Li       4.08351617       4.06124820       4.04036652       0.00656737       0.00998694       0.21137553
Li       4.07292810       6.12072392       6.07612479       0.15046558      -0.49179778      -0.29839915
Li       6.08731676       4.13575515       5.98908640      -0.34523693       0.08822072      -0.08326826
Li       6.00475115       6.08992057       4.08182842      -0.05279220      -0.32439197       0.21302207
F        6.13959155       6.09974250       6.08704060      -0.49074929      -0.34465021      -0.50456691
F        4.08531481       6.08545501       4.08481130      -0.10902480       0.27635348      -0.12554877
F        6.15485063       4.04681173       4.04306343       0.08293762       0.06576059       0.07678240
F        4.08759625       4.10386379       6.13204055      -0.11325658      -0.11937066       0.07969597
64
Lattice="28.160000039244697 0.0 0.0 0.0 28.160000039244697 0.0 0.0 0.0 28.160000039244697" Properties=species:S:1:pos:R:3:REF_forces:R:3 config_type=LIF64_ISOLATED REF_energy=-32504.127598366947 pbc="T T T"
Li       0.10839740       0.02456885       0.03895097       0.59693713       0.75106680       0.83430164
Li       0.00530833       2.04618493       2.05009101       0.20550545      -0.00516483      -0.04260087
Li       2.12470899       0.03982543       2.03194847      -0.07236318       0.17027491       0.05547952
Li       1.99497051       2.07330562       0.04664711       0.06600279      -0.05675067       0.16479229
F        2.01545326       2.03360580       2.00246027       0.17238064       0.06290152       0.24404757
F       -0.04024896       2.03691790      -0.00741394       0.10534041      -0.17569788      -0.05416723
F        2.08482717       0.00476016       0.03929783      -0.24985852      -0.07466355      -0.13078122
F       -0.05413827      -0.02660341       2.06216139       0.11722122       0.07973222      -0.21690238
Li       4.15955572       0.01353021      -0.01229374       0.02364515       0.40603838       0.48443594
Li       4.07923637       2.05945118       2.03957068       0.11055024      -0.22884438      -0.02487439
Li       6.13398305       0.00201214       2.06849955      -0.51596281       0.48949690      -0.18649317
Li       6.06843242       2.03912612      -0.01750584      -0.31754590      -0.21300407       0.50073417
F        6.13459238       2.04408443       2.05716708       0.15667300       0.06572640      -0.08996419
F        4.07879796       2.04416981      -0.01711177       0.04153000       0.11592204      -0.16889680
F        6.07876548       0.00430729      -0.00703031      -0.25448753       0.40119031       0.34000294
F        4.11273280       0.00862422       2.05998487      -0.07453062      -0.18114784       0.05884252
Li       0.01962581       4.10647392      -0.02888545       0.36459271       0.12967924       0.52588444
Li       0.02815187       6.11409719       1.97225058       0.33952369      -0.42088959      -0.10978328
Li       2.10477293       4.07300850       2.07842519      -0.31479379       0.02134813      -0.21812159
Li       2.03562155       6.05644136       0.05531472      -0.11912615      -0.28863153       0.29834927
F        2.01824775       6.12105166       2.03339585       0.21736286       0.18484740       0.08932552
F       -0.01519850       6.11604606       0.01675980       0.43522554      -0.41368921       0.30492306
F        2.03915627       4.05955772      -0.00403824       0.10238467       0.03663642      -0.24983538
F        0.03628315       4.09112888       2.01334350      -0.29480963      -0.06869319       0.20074736
Li       4.11259710       4.02811898      -0.00524466      -0.10124361       0.15054966       0.19460654
Li       4.12320007       6.10390836       2.05172550      -0.14184133      -0.18004844      -0.13752677
Li       6.06292964       4.08026970       2.07257197      -0.04230776      -0.08624997      -0.06859086
Li       6.10493188       6.08827509       0.06687239      -0.86036697      -0.76266762       0.68140790
F        6.09541985       6.09010935       2.07701751       0.07269280       0.14531952      -0.21972828
F        4.07598383       6.15943816      -0.00570491       0.18066268      -0.05375765       0.07940184
F        6.09089336       4.10391234      -0.01601730       0.08588384       0.07062383      -0.02359579
F        4.08892725       4.09945477       2.03641271      -0.08266045      -0.13765018       0.02073620
Li       0.01332694       0.03628933       4.05296620       0.34673254       0.33453215       0.22034097
Li      -0.01461742       2.06696714       6.12855183       0.35606565      -0.32945087      -0.46920910
Li       2.02724515       0.03537092       6.14210767      -0.29912291       0.30596153      -0.45150423
Li       2.04318803       2.03741017       4.14718065      -0.10790149      -0.10113794      -0.15723324
F        2.02356643       2.04124512       6.13039433       0.14203314       0.05335476       0.20252708
F       -0.02852249       2.04394418       4.09680737      -0.09650687       0.15995553      -0.08785562
F        2.04564533      -0.00420661       4.07170780       0.11274287      -0.08770444       0.08107202
F       -0.03195301       0.02564349       6.12876683       0.52067744       0.44796845      -0.37561863
Li       4.09906504       0.01188278       4.14422653       0.00766549       0.25370000      -0.16174656
Li       4.04383212       2.02784943       6.11283004       0.22764676       0.07416244      -0.19161146
Li       6.10733850      -0.01814709       6.11914359      -0.80050448       0.91578915      -0.80807818
Li       6.13465679       2.05448293       4.10733738      -0.27426189      -0.12103108      -0.03738744
F        6.09968058       1.99508017       6.11476306       0.09710800      -0.06115677       0.02691868
F        4.09953829       2.06617562       4.09197553      -0.20978248      -0.05153493      -0.01676539
F        6.12981699      -0.00298435       4.08350037       0.06204303      -0.13642788       0.20262890
F        4.09275826      -0.01220729       6.16095262       0.01663118      -0.04172695      -0.03229794
Li       0.02209360       4.10346060       4.06858870       0.19358067      -0.02478981      -0.08770496
Li       0.07325517       6.07616820       6.10527864       0.72097075      -0.64916087      -0.83214397
Li       2.00727841       4.06781872       6.09118122       0.15324623       0.09431783      -0.19633098
Li       2.01315139       6.06669769       4.02518293      -0.02878376      -0.08622374       0.09891085
F        2.02563545       6.12150149       6.08772434      -0.05470510       0.03188965       0.11237109
F        0.01505460       6.16356766       4.08515839      -0.06147019      -0.13819628       0.11733692
F        2.05236292       4.07883494       4.06074746      -0.01534177      -0.09420213       0.04154491
F        0.03256847       4.08818953       6.12126271      -0.11484989       0.12388989       0.05922665
Li       4.07626146       4.05898636       4.03570214       0.03104556       0.02147154       0.22705335
Li       4.06918988       6.10892729       6.07409489       0.16042810      -0.46032568      -0.29490270
Li       6.08325578       4.12856616       5.98653447      -0.32456346       0.11031601      -0.07834511
Li       6.00030300       6.08735084       4.08402501      -0.02759385      -0.31438575       0.21308737
F        6.14222307       6.09938965       6.08688986      -0.50427869      -0.36369977      -0.50731671
F        4.08824271       6.08240082       4.08253836      -0.14046142       0.27793702      -0.12973658
F        6.15136023       4.04506174       4.04321941       0.08076683       0.06145862       0.07571076
F        4.08846062       4.10558842       6.12783964      -0.12147280      -0.13935251       0.10090269
64
Lattice="28.160000039244697 0.0 0.0 0.0 28.160000039244697 0.0 0.0 0.0 28.160000039244697" Properties=species:S:1:pos:R:3:REF_forces:R:3 config_type=LIF64_ISOLATED REF_energy=-32504.132440496654 pbc="T T T"
Li       0.11238404       0.03180554       0.03888233       0.59968153       0.73700338       0.82370355
Li       0.00659665       2.04244400       2.05113979       0.20560495      -0.00033193      -0.03031176
Li       2.12163881       0.03251903       2.03658110      -0.06026254       0.19284765       0.04494365
Li       1.99391215       2.08520883       0.04611664       0.07304787      -0.10706896       0.17027156
F        2.01255666       2.03299083       1.99978181       0.19571777       0.07304633       0.25826140
F       -0.03752501       2.03449437      -0.00517890       0.09676784      -0.16421122      -0.06948741
F        2.08752617       0.00416166       0.03723550      -0.26068801      -0.07713489      -0.11572767
F       -0.05278850      -0.02229528       2.06579257       0.11470103       0.06241456      -0.22715594
Li       4.15385816       0.01448502      -0.00971702       0.04323259       0.40119159       0.47289349
Li       4.08533092       2.06250060       2.04354535       0.08433090      -0.24564834      -0.04250393
Li       6.12804596       0.00906628       2.07870740      -0.49806202       0.45831277      -0.21876463
Li       6.07579579       2.03067388      -0.01475178      -0.32914260      -0.21326889       0.48741971
F        6.13463984       2.04172753       2.05451892       0.14778367       0.06637534      -0.06893230
F        4.08065981       2.03996189      -0.02044197       0.03591008       0.13485976      -0.15043062
F        6.08340611       0.00245561      -0.00987556      -0.27892536       0.41554375       0.35612658
F        4.11229692       0.00750173       2.06257315      -0.06497409      -0.17255547       0.06074848
Li       0.01902116       4.09844308      -0.02720957       0.35774689       0.15127060       0.52231472
Li       0.02790893       6.11419363       1.96631313       0.34241283      -0.40619676      -0.09589752
Li       2.10011710       4.07470780       2.07882434      -0.31512135       0.01994045      -0.20718515
Li       2.04034925       6.05187587       0.05205032      -0.13300574      -0.26641025       0.29975103
F        2.02030701       6.12316911       2.03534637       0.21907856       0.16038799       0.07465018
F       -0.01107413       6.11978355       0.01457397       0.43734156      -0.43370088       0.30606155
F        2.03999994       4.05793034      -0.00597368       0.11011649       0.03852361      -0.24716683
F        0.03923917       4.08857257       2.00720689      -0.29658498      -0.05777063       0.20686299
Li       4.10489632       4.01581898      -0.00350320      -0.06292955       0.16232891       0.18411464
Li       4.12294774       6.10068474       2.03918852      -0.13735142      -0.16139277      -0.11335608
Li       6.06954212       4.08384512       2.07304693      -0.04629091      -0.08141038      -0.07184742
Li       6.09913416       6.08323354       0.06982014      -0.84234019      -0.74824861       0.66822354
F        6.09813045       6.09407697       2.07483749       0.05558699       0.12887963      -0.21508486
F        4.07625516       6.15784226      -0.00715512       0.16540524      -0.05857564       0.08688246
F        6.08801319       4.10637937      -0.00918073       0.08851794       0.05122306      -0.02620057
F        4.08834732       4.09810160       2.03994191      -0.08847217      -0.14339968       0.00778504
Li       0.00640191       0.03257663       4.04692948       0.35941811       0.35866041       0.24956284
Li      -0.01139905       2.07425407       6.13436549       0.35774047      -0.34158545      -0.48395206
Li       2.02082806       0.03355031       6.13943963      -0.29760031       0.32008460      -0.44739920
Li       2.04560390       2.03665151       4.14214763      -0.12697830      -0.10799225      -0.12517107
F        2.02110013       2.04292677       6.13283725       0.15274281       0.05857487       0.19096149
F       -0.02701025       2.04326604       4.09801639      -0.09955723       0.16546514      -0.10837868
F        2.04901015      -0.00473377       4.07339165       0.09962356      -0.09474798       0.06665276
F       -0.03263133       0.02860687       6.12826064       0.51640838       0.43067469      -0.37427883
Li       4.10315253       0.01178341       4.14695447      -0.02209992       0.24537863      -0.15157733
Li       4.04679000       2.02564267       6.11435871       0.20572013       0.07327850      -0.18007775
Li       6.11344869      -0.02889735       6.12099347      -0.81860197       0.94039178      -0.80379421
Li       6.12401292       2.04754690       4.10118685      -0.24182099      -0.09345112      -0.00559061
F        6.09794644       1.99721252       6.11571160       0.09408849      -0.07893827       0.01696105
F        4.09832591       2.06364106       4.09367408      -0.19848608      -0.03507190      -0.03993180
F        6.12967510      -0.00190244       4.08477785       0.05999026      -0.13891876       0.20608292
F        4.08933278      -0.01251408       6.16332661       0.04466778      -0.04864579      -0.04132817
Li       0.02234323       4.10366515       4.06830934       0.18094961      -0.02195002      -0.07792757
Li       0.07928530       6.07462799       6.10757312       0.68300558      -0.63882041      -0.84064120
Li       2.00859564       4.07595619       6.08809990       0.14902654       0.05754155      -0.18511429
Li       2.01942201       6.06501279       4.02838230      -0.05911095      -0.06724926       0.07889507
F        2.02179549       6.12100522       6.08811175      -0.02508548       0.03308213       0.10545920
F        0.00913724       6.16864901       4.08537549      -0.03296334      -0.15938037       0.10996197
F        2.04618753       4.08123818       4.06434355       0.01881868      -0.09325108       0.01498670
F        0.02826993       4.08909681       6.11841578      -0.10099036       0.13159574       0.06982165
Li       4.07672358       4.06202180       4.02919483       0.03542209       0.01829674       0.25148963
Li       4.06652369       6.11286115       6.06769357       0.18692280      -0.46752888      -0.27311698
Li       6.07729435       4.11743906       5.98337993      -0.30727228       0.13482968      -0.06596525
Li       5.99800503       6.09063163       4.08458485      -0.00491955      -0.31263637       0.22020624
F        6.14278163       6.10212938       6.08743764      -0.52003030      -0.37222195      -0.51935924
F        4.09226076       6.08419556       4.07999252      -0.17374101       0.26584615      -0.12127431
F        6.15386160       4.04521778       4.04375375       0.06160646       0.04606363       0.04897026
F        4.08936121       4.10453691       6.12761069      -0.13572674      -0.12419817       0.08390564
64
Lattice="28.160000039244697 0.0 0.0 0.0 28.160000039244697 0.0 0.0 0.0 28.160000039244697" Properties=species:S:1:pos:R:3:REF_forces:R:3 config_type=LIF64_ISOLATED REF_energy=-32504.122085612697 pbc="T T T"
Li       0.10302515       0.03213008       0.03260015       0.62985883       0.73745281       0.83406895
Li       0.00365978       2.04867766       2.03460391       0.21167712      -0.01653836       0.02734008
Li       2.11938129       0.02977519       2.03169866      -0.06823939       0.20955545       0.03566583
Li       1.99242431       2.09542522       0.05207744       0.09219487      -0.14548716       0.15155599
F        2.01082216       2.03509895       2.00056639       0.19426664       0.06301388       0.25055092
F       -0.03730217       2.03395958      -0.00690084       0.08158007      -0.15539002      -0.07145199
F        2.08753824       0.00758082       0.03549466      -0.27360549      -0.08804254      -0.10717695
F       -0.05665221      -0.02405469       2.06575423       0.12060145       0.05885924      -0.24174540
Li       4.16126973       0.00998849      -0.00324533      -0.00593256       0.41412707       0.45448054
Li       4.08465637       2.05660850       2.03956152       0.07733904      -0.21818253      -0.04262735
Li       6.13374171       0.01128840       2.07931860      -0.50896864       0.45955615      -0.20416487
Li       6.07476934       2.02187720      -0.00364787      -0.33466919      -0.17582412       0.45915094
F        6.13789724       2.04429637       2.04979087       0.15458038       0.03610060      -0.05086593
F        4.08004825       2.04494374      -0.01734798       0.03572342       0.11241943      -0.14485210
F        6.07501804       0.00418542      -0.00910412      -0.23283910       0.39616457       0.36154801
F        4.11071263       0.00536521       2.05989125      -0.04283458      -0.17511681       0.07740795
Li       0.02306647       4.09586623      -0.03404555       0.35174748       0.17471314       0.52542859
Li       0.03006879       6.10783710       1.96571502       0.34140548      -0.39745912      -0.10369696
Li       2.09455358       4.07453648       2.08064520      -0.29564550       0.01850320      -0.20613537
Li       2.04741012       6.05330167       0.04931961      -0.14569387      -0.27088037       0.30523057
F        2.02583704       6.12034457       2.03519319       0.20534321       0.16477455       0.07853975
F       -0.00738250       6.11503919       0.01195663       0.43464782      -0.42229701       0.30150864
F        2.03738865       4.05806092      -0.00503509       0.11835456       0.04312049      -0.25815110
F        0.04012962       4.09043702       2.00387693      -0.30110960      -0.06654529       0.20524628
Li       4.10336512       4.01805113      -0.00383117      -0.04125232       0.15127600       0.18848937
Li       4.11917857       6.10189247       2.04140364      -0.11970851      -0.17733464      -0.10711370
Li       6.07100630       4.07831611       2.07334935      -0.05639895      -0.05700264      -0.08074755
Li       6.09915715       6.08809555       0.06552922      -0.84264692      -0.77092086       0.68137062
F        6.10197351       6.09207693       2.07731146       0.04073784       0.13531022      -0.22252127
F        4.07710314       6.15994343      -0.01208602       0.16133904      -0.05753383       0.09450681
F        6.08746344       4.10606041      -0.01154614       0.08987343       0.06482934      -0.01991062
F        4.08798871       4.09427990       2.03907244      -0.09365989      -0.12434832       0.01105754
Li       0.01400177       0.02410355       4.04637798       0.34172224       0.40077405       0.23628181
Li      -0.01245547       2.06913365       6.14026883       0.37349387      -0.33399761      -0.50750954
Li       2.02589165       0.02584441       6.14113666      -0.30882754       0.35503567      -0.43995277
Li       2.05170594       2.03396861       4.14746794      -0.16222041      -0.09420291      -0.13089460
F        2.02318400       2.04581827       6.13687102       0.16751688       0.02386318       0.17620310
F       -0.02738247       2.04616815       4.09832292      -0.09787444       0.14336780      -0.10673806
F        2.05082794      -0.00522928       4.06815778       0.10825733      -0.10838948       0.09101679
F       -0.02859624       0.02930302       6.13089415       0.52319173       0.41077538      -0.37356766
Li       4.09952814       0.00547986       4.14758688      -0.01204973       0.25896022      -0.16878212
Li       4.06061508       2.02456487       6.11540814       0.16001106       0.10062964      -0.16845354
Li       6.10421486      -0.02885149       6.12246927      -0.78840616       0.93233034      -0.79825940
Li       6.12416837       2.05253701       4.10929548      -0.23681763      -0.09871288      -0.02437354
F        6.09851199       2.00228545       6.12389694       0.06877110      -0.09903915      -0.00437396
F        4.10401627       2.06647354       4.08639671      -0.20639453      -0.06229140       0.00315012
F        6.13390828      -0.00015895       4.09110156       0.04081678      -0.13397659       0.19111370
F        4.08866452      -0.01596754       6.16236233       0.04921837      -0.04652745      -0.04756849
Li       0.02142470       4.10270667       4.07038454       0.17605166      -0.04742014      -0.07969134
Li       0.07960976       6.07338785       6.11384667       0.67026397      -0.63845402      -0.85056463
Li       2.00297209       4.08370861       6.08679280       0.17330598       0.01662835      -0.17419250
Li       2.01440533       6.06373287       4.03550032      -0.04772379      -0.06653012       0.05339693
F        2.01996548       6.12453936       6.08930859      -0.03597102       0.03847939       0.10375275
F        0.00699363       6.16932881       4.08134428      -0.02101543      -0.16641491       0.12700710
F        2.04146669       4.07761682       4.06819867       0.03552827      -0.06675664       0.00414153
F        0.02867802       4.08520647       6.11697735      -0.11094310       0.16792877       0.08820555
Li       4.06825058       4.05848474       4.02529303       0.05011337       0.04032672       0.25227973
Li       4.06508647       6.12569572       6.06959721       0.19360767      -0.50691304      -0.28601877
Li       6.06862478       4.12031906       5.97480419      -0.29874805       0.14035729      -0.02670682
Li       6.00457823       6.09118937       4.08853190      -0.03500017      -0.32355585       0.19904067
F        6.14056467       6.09949885       6.08492674      -0.51438853      -0.34104912      -0.51246020
F        4.09022467       6.08001964       4.07872637      -0.16664605       0.28076138      -0.10465855
F        6.15493360       4.04612867       4.04693591       0.06565235       0.02763807       0.03315772
F        4.08673297       4.10704526       6.13291300      -0.13256145      -0.12449821       0.06403307
64
Lattice="28.160000039244697 0.0 0.0 0.0 28.160000039244697 0.0 0.0 0.0 28.160000039244697" Properties=species:S:1:pos:R:3:REF_forces:R:3 config_type=LIF64_ISOLATED REF_energy=-32504.16178634147 pbc="T T T"
Li       0.10770866       0.03235382       0.04120827       0.60741001       0.74769788       0.81059504
Li       0.00808196       2.03960733       2.04251701       0.18553569      -0.00373736      -0.01511500
Li       2.12077190       0.02159806       2.04021884      -0.07642398       0.22208906       0.01538137
Li       1.99677493       2.09061212       0.05320161       0.06221813      -0.11855845       0.13060021
F        2.00729038       2.03481771       1.99592048       0.21934132       0.03336701       0.30577359
F       -0.03894978       2.03128081      -0.00617839       0.08399254      -0.15956549      -0.06282028
F        2.08718056       0.01051487       0.03555883      -0.24029376      -0.10796216      -0.08575657
F       -0.05544082      -0.02091750       2.06338195       0.13747843       0.04531904      -0.21592664
Li       4.15691531       0.00892825       0.00040619       0.00971517       0.41600526       0.44173763
Li       4.07841808       2.04580850       2.03804905       0.09167088      -0.17035641      -0.04093890
Li       6.13811354       0.02249508       2.07667545      -0.49910460       0.43288147      -0.18818547
Li       6.07758482       2.01960936      -0.00352340      -0.34303658      -0.17107143       0.45735606
F        6.13586858       2.04094685       2.04996358       0.15876356       0.04700002      -0.05923050
F        4.07324737       2.05373478      -0.01784613       0.07366956       0.04614385      -0.14272194
F        6.07843488       0.00794144      -0.00739389      -0.25843341       0.40565632       0.35730543
F        4.11602132       0.00488525       2.06470440      -0.08094758      -0.17145684       0.05182701
Li       0.01873862       4.09753283      -0.02435076       0.37011441       0.15684783       0.50457797
Li       0.02707824       6.11019126       1.96730359       0.36569340      -0.38917657      -0.11458070
Li       2.09073421       4.06394138       2.08549773      -0.26964419       0.06259891      -0.26183523
Li       2.04965515       6.05109168       0.04963371      -0.14523108      -0.27766500       0.32093538
F        2.02351689       6.11944950       2.03300633       0.20410780       0.16120843       0.10588677
F       -0.00515572       6.11544806       0.01384876       0.41527661      -0.42413766       0.30496703
F        2.03733582       4.05381113      -0.00347802       0.11199391       0.05534017      -0.26701960
F        0.04238498       4.08490700       2.00258185      -0.31507635      -0.04830589       0.23041687
Li       4.10185131       4.01302150      -0.01069545      -0.06169902       0.17743286       0.21583100
Li       4.12895436       6.10438265       2.04570500      -0.15590115      -0.18728301      -0.12562179
Li       6.06454095       4.07555652       2.06024451      -0.06009131      -0.04855194      -0.05591789
Li       6.09963466       6.08504526       0.06438395      -0.85186124      -0.75710941       0.68612947
F        6.09821101       6.09205384       2.07721349       0.06496535       0.13665439      -0.21087031
F        4.07674141       6.15941242      -0.00746858       0.17490649      -0.05350286       0.06876467
F        6.08888619       4.10729532      -0.00563473       0.09970507       0.04765334      -0.04000302
F        4.08889082       4.09542905       2.03401637      -0.10455340      -0.14308652       0.05316681
Li       0.02394602       0.03197637       4.04742444       0.30502642       0.37298556       0.24576404
Li      -0.01106707       2.06827842       6.13713984       0.36542652      -0.32301360      -0.49072512
Li       2.02589472       0.02533806       6.13702887      -0.29622811       0.36169199      -0.42211883
Li       2.04778514       2.04281590       4.14255805      -0.14506653      -0.11780306      -0.09745767
F        2.02223566       2.04519837       6.13890491       0.17166382       0.04233630       0.14340328
F       -0.03040219       2.04728840       4.09666738      -0.06824890       0.13981762      -0.11373275
F        2.05066653      -0.00818650       4.06943477       0.10428883      -0.09550440       0.06792546
F       -0.03202988       0.02994390       6.12867007       0.53459508       0.41528381      -0.38405622
Li       4.10290510       0.00267362       4.14422578       0.00014347       0.25733863      -0.14289831
Li       4.07385361       2.02930627       6.10814099       0.12083594       0.07037366      -0.14723782
Li       6.10609380      -0.02483369       6.13019795      -0.79676353       0.91947226      -0.81055441
Li       6.12213725       2.05851508       4.10627523      -0.23190451      -0.12073052      -0.02562001
F        6.09553907       1.99926874       6.12767073       0.06994429      -0.07846158      -0.01800698
F        4.10135786       2.06668930       4.08475918      -0.20607726      -0.05186609       0.00600224
F        6.13512485      -0.00032130       4.09050591       0.04037558      -0.11667075       0.19426510
F        4.08874460      -0.01832732       6.16261509       0.05531600      -0.03904786      -0.05827457
Li       0.02324328       4.10612269       4.05696079       0.15381085      -0.04735972      -0.05091093
Li       0.08115191       6.06435651       6.11211342       0.66275583      -0.62097361      -0.84308864
Li       2.01094359       4.08743628       6.08544729       0.13885525       0.00189413      -0.15859130
Li       2.01545114       6.06065649       4.03459763      -0.04555943      -0.03336649       0.03961196
F        2.02592375       6.12708407       6.08732053      -0.05514271       0.00714638       0.10429963
F        0.00865723       6.17103759       4.08119815      -0.02270027      -0.18502867       0.11786528
F        2.04118147       4.07762560       4.06266820       0.03573808      -0.07918689       0.03360638
F        0.02386842       4.08644402       6.11707805      -0.07351118       0.16860215       0.07094651
Li       4.06273322       4.06257326       4.02793078       0.07068811       0.03734245       0.21252919
Li       4.06580779       6.11775268       6.07024838       0.18864287      -0.46389926      -0.28245857
Li       6.06793967       4.12545463       5.96869198      -0.28439101       0.13920852      -0.00261944
Li       6.00921837       6.08665144       4.09224022      -0.04991925      -0.30744197       0.18472811
F        6.14438514       6.10104719       6.08634927      -0.51383240      -0.36327245      -0.52140404
F        4.08929249       6.08212628       4.08368822      -0.14813102       0.25954669      -0.11921434
F        6.15178096       4.04511308       4.04568500       0.06979337       0.02980706       0.03873007
F        4.08578678       4.11099094       6.13177614      -0.12468462      -0.14158885       0.05458452
64
Lattice="28.160000039244697 0.0 0.0 0.0 28.160000039244697 0.0 0.0 0.0 28.160000039244697" Properties=species:S:1:pos:R:3:REF_forces:R:3 config_type=LIF64_ISOLATED REF_energy=-32504.154626210035 pbc="T T T"
Li       0.10341300       0.02885627       0.04036634       0.62011666       0.75142572       0.81415164
Li       0.01400636       2.03781533       2.04050146       0.18337185      -0.00946500       0.00186276
Li       2.12758771       0.02341040       2.03342025      -0.08741828       0.21585799       0.03093988
Li       2.00158240       2.08262715       0.04695723       0.07805046      -0.09048740       0.15798169
F        2.00831704       2.03578484       2.00170405       0.20765875       0.02158981       0.27741200
F       -0.03766574       2.02953940      -0.01130806       0.08603323      -0.15168994      -0.05746518
F        2.08914794       0.01185552       0.03577895      -0.25062368      -0.10695301      -0.09968296
F       -0.05036147      -0.01892648       2.05877269       0.11597321       0.03898769      -0.20961793
Li       4.15506827       0.01467916      -0.00077718       0.03162405       0.40953534       0.44055698
Li       4.07826019       2.04653831       2.03955651       0.09695450      -0.15901605      -0.04675628
Li       6.14095154       0.01583441       2.08095149      -0.51310889       0.44895524      -0.20242141
Li       6.08362360       2.02544949       0.00335917      -0.36240059      -0.18899948       0.45671045
F        6.13765895       2.04324619       2.04905439       0.15619760       0.02520375      -0.06203763
F        4.06943539       2.05415236      -0.01159216       0.08592730       0.04674343      -0.15998381
F        6.07752402       0.00688145      -0.01243874      -0.25668403       0.41452919       0.36863037
F        4.11550240       0.00172852       2.06218125      -0.07248737      -0.15831825       0.05839130
Li       0.02060693       4.08176565      -0.02442902       0.37818459       0.17563900       0.50696909
Li       0.02375862       6.10863085       1.96704536       0.37397724      -0.38173734      -0.10595105
Li       2.08992553       4.06328468       2.08667351      -0.25382727       0.05998692      -0.28978107
Li       2.03303669       6.05868925       0.05111328      -0.11483524      -0.29715730       0.32856976
F        2.02470727       6.11850385       2.03101580       0.17985818       0.16173344       0.12073592
F       -0.00353577       6.11637978       0.01707924       0.40674672      -0.42963879       0.29918205
F        2.04148819       4.05428067       0.00204871       0.06920510       0.04723322      -0.28544464
F        0.03844389       4.08069097       2.00781639      -0.31099395      -0.03961684       0.20691827
Li       4.10485378       4.02484301      -0.00854146      -0.09765975       0.15006089       0.22127531
Li       4.13210162       6.10428818       2.05196271      -0.17740406      -0.18134531      -0.14626080
Li       6.05745619       4.07926636       2.05639349      -0.04572758      -0.06964604      -0.02403416
Li       6.09633289       6.07999088       0.06366731      -0.84805935      -0.73433586       0.68607214
F        6.10102776       6.09083011       2.07855346       0.05530340       0.14059075      -0.21137528
F        4.07750382       6.16305748      -0.00650794       0.18934864      -0.06204329       0.06566623
F        6.08569673       4.10496475      -0.00041778       0.11214406       0.06071352      -0.05682884
F        4.08284099       4.09415111       2.03042003      -0.07082489      -0.11768865       0.08203156
Li       0.02113239       0.02835936       4.04661843       0.32075335       0.38937378       0.23606404
Li      -0.00308950       2.06483836       6.14104376       0.33945889      -0.29644408      -0.50186288
Li       2.01970984       0.02416188       6.14335382      -0.28035489       0.35719848      -0.43828207
Li       2.05226176       2.04056490       4.14648360      -0.15866329      -0.11433516      -0.11907370
F        2.02034834       2.04892523       6.13849567       0.18432239       0.01868421       0.14952662
F       -0.03072101       2.04847660       4.10118072      -0.05696253       0.11238318      -0.13052462
F        2.05581232      -0.01250672       4.06300064       0.07977722      -0.08116613       0.10012339
F       -0.03284185       0.02831146       6.13111781       0.55444657       0.40864805      -0.38499210
Li       4.09496571       0.00601451       4.13860768       0.01633987       0.24714086      -0.13243212
Li       4.06843487       2.03218124       6.10623848       0.14435844       0.05911018      -0.15050492
Li       6.10156381      -0.02199204       6.13141895      -0.79955678       0.91575804      -0.81174946
Li       6.12973088       2.05197251       4.11062967      -0.25482306      -0.09279446      -0.03999248
F        6.09394347       1.99526607       6.12798423       0.08170272      -0.07194615      -0.01025510
F        4.10064461       2.07414539       4.08798526      -0.21962055      -0.08233058      -0.00713147
F        6.13025242       0.00139625       4.08735157       0.05860084      -0.12084262       0.19062442
F        4.09171704      -0.01602701       6.15767798       0.02412209      -0.04271657      -0.03935639
Li       0.02443990       4.10456842       4.04665244       0.13832535      -0.05525275      -0.01542636
Li       0.08001969       6.06448401       6.11841606       0.66164563      -0.63010745      -0.86221790
Li       2.01547265       4.09336979       6.08258994       0.10412685      -0.01038083      -0.15456855
Li       2.01309172       6.05050554       4.03356170      -0.04944309       0.01742951       0.03588232
F        2.02614097       6.12985051       6.08206248      -0.04348275      -0.02185001       0.12850322
F        0.01117325       6.17544765       4.08483507      -0.03243987      -0.20352981       0.10114154
F        2.04209392       4.08068561       4.05835827       0.03229383      -0.08674028       0.06334478
F        0.02079199       4.08149859       6.11801883      -0.04531775       0.19909517       0.07497080
Li       4.05614709       4.06746209       4.02998786       0.10689104       0.01584725       0.19040999
Li       4.06811448       6.11037688       6.07265425       0.18620109      -0.43331316      -0.29200224
Li       6.06578862       4.12786978       5.96810907      -0.27012524       0.12532534      -0.02198859
Li       6.01163498       6.09646816       4.09116923      -0.05323700      -0.33466122       0.18589024
F        6.14452435       6.10064595       6.08815993      -0.52109088      -0.36380107      -0.52443845
F        4.08960355       6.08640047       4.08197188      -0.13416865       0.23857703      -0.10633697
F        6.15212380       4.04100814       4.04343772       0.06555619       0.05828588       0.05789790
F        4.08747978       4.10692291       6.13044536      -0.14425714      -0.11129200       0.06234051
64
Lattice="28.160000039244697 0.0 0.0 0.0 28.160000039244697 0.0 0.0 0.0 28.160000039244697" Properties=species:S:1:pos:R:3:REF_forces:R:3 config_type=LIF64_ISOLATED REF_energy=-32504.15451505153 pbc="T T T"
Li       0.10409845       0.03022446       0.05150106       0.61735426       0.73732400       0.78318039
Li       0.00667985       2.03156739       2.03671728       0.20472537       0.01166407       0.02755528
Li       2.13526705       0.02517848       2.03324222      -0.09782636       0.21791693       0.02538784
Li       1.99390792       2.08316857       0.04633489       0.10029282      -0.08822972       0.15975447
F        2.00687276       2.03747259       2.00601427       0.20885225       0.00593076       0.25999252
F       -0.03726065       2.02923230      -0.01605771       0.08163690      -0.15788399      -0.03732548
F        2.09178008       0.01149919       0.03116872      -0.27778893      -0.10516943      -0.06667770
F       -0.05403540      -0.01353478       2.06348024       0.11883767       0.02960728      -0.22934189
Li       4.14928607       0.01804662       0.00194615       0.04993417       0.39954737       0.42604825
Li       4.07377732       2.04748637       2.04580373       0.09378304      -0.14774896      -0.06532042
Li       6.14329351       0.02221382       2.08360578      -0.51453225       0.42039876      -0.22050064
Li       6.08256758       2.02334232       0.01294573      -0.36182929      -0.19684083       0.43451926
F        6.13549161       2.04070636       2.04897984       0.14964669       0.02661246      -0.06645453
F        4.06220892       2.05053106      -0.01407200       0.11886184       0.06067546      -0.14357066
F        6.08006843       0.00384880      -0.00877157      -0.27256702       0.43234025       0.37753950
F        4.11088646      -0.00101805       2.06043534      -0.06419093      -0.13766586       0.07901848
Li       0.01809126       4.07731298      -0.02512638       0.38773033       0.18940880       0.50797208
Li       0.01233999       6.11129057       1.95621133       0.40341354      -0.38647640      -0.08733292
Li       2.09063192       4.06949482       2.09113055      -0.26341903       0.04993442      -0.31065405
Li       2.03732564       6.05333652       0.05132594      -0.11587319      -0.28178314       0.33774423
F        2.02507768       6.11786728       2.03156601       0.16589735       0.15153594       0.12240636
F       -0.00250585       6.11677172       0.01595709       0.39487131      -0.43166380       0.28591310
F        2.04383381       4.05160368       0.00197101       0.05628325       0.04926619      -0.29218608
F        0.03680609       4.08417805       2.00274732      -0.31786626      -0.05884484       0.21547104
Li       4.10028407       4.02056456      -0.01513310      -0.09480506       0.15438523       0.23771597
Li       4.13862891       6.09611324       2.05744089      -0.19054446      -0.15581091      -0.15370312
Li       6.05995004       4.07894958       2.04914373      -0.04774333      -0.05905747       0.00593693
Li       6.09538501       6.08360106       0.06541659      -0.84876409      -0.73569032       0.69110584
F        6.10534032       6.08925929       2.07811652       0.04908493       0.14439907      -0.21797324
F        4.07024017       6.16401300      -0.00177892       0.21570836      -0.07056264       0.04940092
F        6.08711574       4.10775480       0.00349902       0.09482871       0.04480456      -0.06338361
F        4.08157552       4.09579611       2.03215101      -0.06174401      -0.13807827       0.07981938
Li       0.02515659       0.02597784       4.05128388       0.30780604       0.40019555       0.22826151
Li       0.00032812       2.05849012       6.14302903       0.32914363      -0.28338648      -0.51000788
Li       2.02426957       0.01668421       6.13789265      -0.27781798       0.36186272      -0.42053632
Li       2.05628288       2.03515211       4.15171863      -0.18089073      -0.09623151      -0.14649734
F        2.02345836       2.04800005       6.13700120       0.16983730       0.01653836       0.15340436
F       -0.02810690       2.04748574       4.10217996      -0.05811490       0.11195843      -0.12135478
F        2.05678522      -0.01111942       4.06219035       0.08798829      -0.09142689       0.10903483
F       -0.03002544       0.02504917       6.12948871       0.56082599       0.40586715      -0.38509957
Li       4.09100021       0.00709746       4.14036366       0.03529405       0.23844899      -0.13155512
Li       4.05938409       2.03625802       6.10557716       0.17823247       0.05967376      -0.14128083
Li       6.11263663      -0.01967077       6.12958213      -0.82090002       0.92466331      -0.80978180
Li       6.12922003       2.04623686       4.10728711      -0.25164338      -0.05247724      -0.02429255
F        6.09450274       1.99985566       6.12766130       0.08756535      -0.09810533      -0.01118738
F        4.10152012       2.07932711       4.09193863      -0.23315329      -0.11461258      -0.02942422
F        6.13063602       0.00072231       4.08277002       0.05731426      -0.11046950       0.20802204
F        4.09004522      -0.01422964       6.15637610       0.02770904      -0.04850952      -0.04848535
Li       0.03022019       4.10325397       4.04584676       0.11986791      -0.04944926      -0.02001398
Li       0.08044759       6.05982551       6.12042497       0.66726452      -0.61241826      -0.86524358
Li       2.01123319       4.08829520       6.07771616       0.11090865       0.02062308      -0.14120061
Li       2.00881117       6.05086279       4.02664163      -0.04677839       0.04043882       0.05112973
F        2.02640964       6.13154269       6.08571543      -0.04761812      -0.04174906       0.12038599
F        0.01345494       6.17778984       4.08605409      -0.04225994      -0.21282358       0.09671282
F        2.04111468       4.08295685       4.05868073       0.03426406      -0.09876687       0.06717701
F        0.02061245       4.08226065       6.11576774      -0.03963741       0.17714464       0.08170246
Li       4.04957062       4.06882507       4.03064470       0.14127955       0.02737711       0.19673207
Li       4.06462566       6.10319559       6.07370307       0.18699068      -0.41158734      -0.29626950
Li       6.07095806       4.12544427       5.96998796      -0.28003119       0.12683869      -0.04557126
Li       6.01366693       6.09609056       4.09389524      -0.05298504      -0.33926735       0.18640781
F        6.14251784       6.10208041       6.08578085      -0.50688322      -0.37393482      -0.50955922
F        4.09309658       6.08793717       4.08286614      -0.14947700       0.22178464      -0.11795013
F        6.15889725       4.03971221       4.04200706       0.05594155       0.05260323       0.05586776
F        4.08702866       4.10802235       6.12784860      -0.15229158      -0.12504714       0.06841500
64
Lattice="28.160000039244697 0.0 0.0 0.0 28.160000039244697 0.0 0.0 0.0 28.160000039244697" Properties=species:S:1:pos:R:3:REF_forces:R:3 config_type=LIF64_ISOLATED REF_energy=-32504.169000351445 pbc="T T T"
Li       0.10647361       0.02120267       0.05194542       0.63033294       0.76551588       0.79697925
Li       0.00211301       2.03346473       2.04369235       0.22894208      -0.00348282       0.00040186
Li       2.13287018       0.02785098       2.04326817      -0.09920113       0.22664069      -0.00704482
Li       1.99445791       2.08654127       0.04522855       0.08618364      -0.11793007       0.18139287
F        2.00311837       2.03536312       2.00543021       0.22298509       0.03230308       0.26442176
F       -0.03694547       2.02931060      -0.01114997       0.07016772      -0.13701434      -0.05670080
F        2.08862656       0.01397266       0.03357670      -0.27078961      -0.11758246      -0.08837242
F       -0.05087515      -0.00785870       2.06361161       0.09096717       0.00218467      -0.21701139
Li       4.15096004       0.02983825      -0.00105720       0.01542199       0.36938396       0.43530191
Li       4.08671857       2.04320276       2.04584969       0.03817420      -0.14759495      -0.05025273
Li       6.14918933       0.02309986       2.08087228      -0.54168181       0.41220851      -0.22203558
Li       6.08471856       2.02205695       0.00963995      -0.36416951      -0.19741187       0.43273312
F        6.13583605       2.03845361       2.04842250       0.15880650       0.02705160      -0.07920926
F        4.05758694       2.05141853      -0.01885007       0.16757936       0.06645659      -0.14199843
F        6.07719728       0.00398482      -0.01187546      -0.24982458       0.44880920       0.37780690
F        4.10761549      -0.00116814       2.05606018      -0.02556499      -0.12870017       0.09423607
Li       0.02075568       4.07225855      -0.02265208       0.37994554       0.17951802       0.50114194
Li       0.01226206       6.10810646       1.95073152       0.39841763      -0.38480827      -0.06675664
Li       2.08973733       4.07085387       2.09061041      -0.26296600       0.01851760      -0.28998213
Li       2.03711193       6.05050262       0.05210893      -0.11909736      -0.28145429       0.32732303
F        2.02302555       6.11635323       2.03282418       0.18242620       0.16195430       0.10428934
F        0.00014102       6.11551935       0.01454517       0.39807825      -0.43648590       0.28624066
F        2.05045716       4.04968146      -0.00383417       0.03107410       0.07380763      -0.27753696
F        0.03476120       4.08432518       2.00719990      -0.31624363      -0.05091993       0.18963660
Li       4.10237988       4.01892048      -0.01859335      -0.11281049       0.14812382       0.24450934
Li       4.13143616       6.09504808       2.05572368      -0.17744288      -0.15871446      -0.15055480
Li       6.05948651       4.07661820       2.04652864      -0.04635031      -0.05498818       0.01354714
Li       6.08889154       6.07949050       0.06589465      -0.82931035      -0.71755016       0.69200496
F        6.10689244       6.08856075       2.07962653       0.02151396       0.12949233      -0.21934004
F        4.07167990       6.16207710       0.00027069       0.21404511      -0.07174843       0.05094512
F        6.09175619       4.10917771       0.00675767       0.07570202       0.02756274      -0.06677798
F        4.07515048       4.09132399       2.03608889      -0.00931588      -0.11275213       0.05289351
Li       0.02079442       0.03559574       4.05202483       0.31718568       0.38055232       0.22654221
Li       0.00085131       2.06750010       6.14086438       0.33520989      -0.30675112      -0.49545672
Li       2.02868959       0.01358271       6.13636303      -0.30089672       0.37497508      -0.41904122
Li       2.05623346       2.03106567       4.15631830      -0.16573202      -0.07875366      -0.16859340
F        2.02531854       2.05214331       6.13818055       0.16442102       0.00250168       0.15292690
F       -0.02703479       2.04180264       4.10117929      -0.07464041       0.13985361      -0.10064815
F        2.05363611      -0.00981396       4.05939160       0.10556410      -0.09915074       0.14375295
F       -0.02796592       0.02944601       6.13553701       0.56007291       0.40554139      -0.39126765
Li       4.09873695       0.00838917       4.14590811       0.00857411       0.24443221      -0.16193450
Li       4.06384240       2.03306414       6.10996809       0.14475979       0.08627594      -0.16523014
Li       6.11377182      -0.00974099       6.12705436      -0.81591979       0.89628579      -0.80093720
Li       6.13977919       2.04276853       4.11496412      -0.28547987      -0.03658371      -0.05096775
F        6.09601709       2.00234579       6.12062509       0.10305264      -0.10949171       0.01753158
F        4.10077174       2.07757448       4.09146675      -0.21130971      -0.11905699      -0.01892615
F        6.12743292       0.00248820       4.08274542       0.08222902      -0.11208441       0.21107009
F        4.09111599      -0.01330427       6.15435975       0.03779059      -0.04511566      -0.03577999
Li       0.03356198       4.10261821       4.04710103       0.12390069      -0.03296154      -0.02819215
Li       0.07462457       6.05940560       6.12322692       0.68248982      -0.60993252      -0.87740824
Li       2.00964060       4.09184148       6.07787500       0.12654893       0.01497848      -0.15154416
Li       2.01146748       6.05767966       4.02845688      -0.06762336       0.01040165       0.05555820
F        2.02658837       6.13210267       6.08811380      -0.04823132      -0.03571571       0.11961158
F        0.01463212       6.17692747       4.08810590      -0.04857688      -0.19808164       0.09967936
F        2.03643521       4.08458374       4.05592708       0.05284363      -0.09646342       0.08866783
F        0.01986006       4.08521367       6.11430554      -0.04921606       0.16423873       0.08809268
Li       4.05611827       4.07094689       4.02755458       0.10153312      -0.00493549       0.21050727
Li       4.06580630       6.10609561       6.07300719       0.18648443      -0.42253792      -0.28924268
Li       6.07171409       4.12254466       5.97167201      -0.28953116       0.14597104      -0.05400139
Li       6.00792925       6.08804295       4.08518037      -0.02490113      -0.31875303       0.20653389
F        6.14332792       6.10293693       6.08282843      -0.51409388      -0.38955093      -0.50836829
F        4.09222601       6.08630296       4.08475956      -0.15281095       0.22547546      -0.13519760
F        6.16040938       4.03512562       4.04188317       0.05373297       0.06304576       0.04927519
F        4.08430011       4.10461235       6.12824751      -0.12342529      -0.10900063       0.07075599
64
Lattice="28.160000039244697 0.0 0.0 0.0 28.160000039244697 0.0 0.0 0.0 28.160000039244697" Properties=species:S:1:pos:R:3:REF_forces:R:3 config_type=LIF64_ISOLATED REF_energy=-32504.165499742965 pbc="T T T"
Li       0.10517136       0.02036625       0.05718936       0.63125108       0.76471344       0.79543401
Li      -0.00752467       2.03486902       2.04341696       0.25574660      -0.00257419       0.00077776
Li       2.13097999       0.02099776       2.04048921      -0.09569852       0.24802764       0.00225949
Li       1.99953437       2.08708884       0.04197155       0.08197011      -0.11031267       0.20583918
F        2.00197331       2.03910038       2.00529191       0.20822079       0.01504018       0.24598335
F       -0.03820487       2.03367835      -0.00950027       0.08098769      -0.15066433      -0.06067649
F        2.09124934       0.00505706       0.04411000      -0.28568967      -0.09881289      -0.11661933
F       -0.05159106      -0.01012556       2.06140101       0.08553906       0.00045123      -0.20678174
Li       4.14420953       0.03490742       0.00285325       0.05323083       0.36591323       0.42421505
Li       4.08289836       2.03296653       2.05336333       0.05272407      -0.11089785      -0.06869602
Li       6.14866915       0.01418079       2.07986608      -0.54102721       0.44644224      -0.23082901
Li       6.08731161       2.02462321       0.01244348      -0.37320565      -0.20414096       0.43187720
F        6.13535236       2.03655365       2.04739127       0.17591668       0.02768718      -0.05376022
F        4.06196094       2.05066082      -0.01535350       0.12503403       0.06410017      -0.15674473
F        6.08102720       0.00521285      -0.01972705      -0.26996018       0.43902949       0.40011173
F        4.10693763       0.00494688       2.05239696      -0.01359497      -0.16457554       0.10625187
Li       0.02466920       4.07739339      -0.02269314       0.36846891       0.17552073       0.49982888
Li       0.01207633       6.11077362       1.95333205       0.40142634      -0.38283520      -0.05445725
Li       2.08122811       4.07174902       2.08092164      -0.22817872       0.01492345      -0.24288157
Li       2.03839749       6.05504163       0.05422647      -0.11776887      -0.27850498       0.32201422
F        2.02143618       6.11882897       2.03426062       0.18816233       0.15759603       0.08933247
F       -0.00088963       6.11826712       0.01638922       0.40204494      -0.44356080       0.28707627
F        2.05351294       4.05346001      -0.00720539       0.00975785       0.06411817      -0.26174602
F        0.03004648       4.08457604       2.01274313      -0.30791609      -0.04575407       0.15296495
Li       4.10323010       4.02229781      -0.00985135      -0.10162568       0.13423550       0.23843511
Li       4.12355956       6.09470635       2.05580503      -0.16444493      -0.16132824      -0.14735918
Li       6.06457259       4.07962358       2.04950395      -0.07352301      -0.07295300      -0.00237081
Li       6.09014635       6.08567907       0.06183344      -0.84287935      -0.73570626       0.70497900
F        6.10501899       6.09368900       2.08085978       0.02977903       0.11240477      -0.22013117
F        4.06906153       6.16346573       0.00025553       0.22107990      -0.06265521       0.05132179
F        6.08965995       4.10722175       0.00647629       0.09533625       0.05810565      -0.06357361
F        4.07909459       4.09130420       2.03466070      -0.02625868      -0.09774460       0.06777659
Li       0.02274299       0.03248951       4.05417696       0.31841287       0.39126919       0.21625394
Li      -0.00620034       2.06357935       6.14798951       0.36106927      -0.29546063      -0.52132356
Li       2.03630342       0.00694234       6.13699830      -0.31016914       0.39181015      -0.42963777
Li       2.05591358       2.02506268       4.15581660      -0.16906212      -0.05200133      -0.18137179
F        2.02253400       2.05673605       6.13340185       0.18379274      -0.02817698       0.17822939
F       -0.02872470       2.04277440       4.09731559      -0.08305537       0.11260712      -0.08507626
F        2.05848606      -0.01145641       4.05603655       0.08546064      -0.11382119       0.16027949
F       -0.02404450       0.02614396       6.13500470       0.55754012       0.40515007      -0.38913081
Li       4.10192747       0.00705954       4.14773725       0.00597602       0.25039177      -0.17624527
Li       4.06731618       2.03234504       6.11008926       0.11946502       0.08537065      -0.18183484
Li       6.11531312      -0.00684229       6.13293305      -0.81502865       0.88061877      -0.81155894
Li       6.14323413       2.04364885       4.12576515      -0.29418819      -0.04706404      -0.09761836
F        6.09541768       2.00008554       6.12233423       0.09338504      -0.10322774       0.02542564
F        4.09218413       2.07374737       4.08636216      -0.16592614      -0.10745437       0.02647619
F        6.12407035       0.00109336       4.08483052       0.09264867      -0.11238832       0.21120378
F        4.09618991      -0.01431964       6.15044106       0.01747964      -0.04287212      -0.00857334
Li       0.03613363       4.09750387       4.04165061       0.13054493      -0.02338881      -0.02550894
Li       0.07202459       6.04707789       6.12218408       0.68541779      -0.58501004      -0.88141144
Li       2.01011004       4.09217348       6.07815205       0.12202687       0.00581275      -0.17080121
Li       2.01834280       6.05890189       4.04108752      -0.08461295       0.00265184       0.02167389
F        2.03156440       6.13453171       6.09099460      -0.06416985      -0.05155165       0.12063025
F        0.01620714       6.17611030       4.08754008      -0.05342470      -0.19499786       0.11834299
F        2.03546226       4.08886760       4.05353025       0.06093797      -0.10733456       0.10160665
F        0.02122147       4.08233784       6.11307926      -0.05995298       0.16655195       0.10488018
Li       4.05909002       4.07002246       4.03129961       0.07060789      -0.00676020       0.17259121
Li       4.06774214       6.10793249       6.07095346       0.18526727      -0.41091834      -0.29086119
Li       6.06024178       4.12154138       5.97381935      -0.25610964       0.16405926      -0.05358873
Li       6.00853281       6.08427431       4.08222749      -0.03135126      -0.30320274       0.20836811
F        6.14382765       6.10159864       6.07751198      -0.51917309      -0.38722305      -0.49105242
F        4.08995887       6.08845888       4.08456427      -0.13924940       0.22039753      -0.12872896
F        6.16013325       4.03255061       4.04852367       0.05137270       0.06012679       0.02839064
F        4.08487045       4.10659580       6.12209168      -0.12083671      -0.12925218       0.09012051
64
Lattice="28.160000039244697 0.0 0.0 0.0 28.160000039244697 0.0 0.0 0.0 28.160000039244697" Properties=species:S:1:pos:R:3:REF_forces:R:3 config_type=LIF64_ISOLATED REF_energy=-32504.16599648678 pbc="T T T"
Li       0.11488112       0.01587938       0.06050420       0.62124614       0.76909589       0.78524036
Li      -0.00965347       2.03599133       2.04337456       0.27707930      -0.01279741      -0.00227543
Li       2.12688131       0.02434680       2.04071046      -0.08928207       0.25756720       0.00357049
Li       1.99640082       2.09249265       0.04673813       0.09260779      -0.13820914       0.19801120
F        2.00177886       2.03827425       2.00210696       0.20727437       0.03268361       0.25468525
F       -0.03836403       2.03208891      -0.01301716       0.07855132      -0.13361020      -0.05270864
F        2.09212542       0.00886835       0.04763717      -0.29054108      -0.12162783      -0.12676490
F       -0.04721176      -0.01207959       2.06183177       0.07139774      -0.00064098      -0.19860178
Li       4.14688470       0.03306569       0.00712528       0.04670435       0.37119582       0.41207070
Li       4.09683041       2.02901157       2.05052034       0.00311463      -0.11136810      -0.06613700
Li       6.15067962       0.01175693       2.08283395      -0.53875538       0.44095242      -0.23457820
Li       6.08708185       2.02873115       0.01234643      -0.37292951      -0.21204916       0.41673880
F        6.13423846       2.03390923       2.04997735       0.16407263       0.03327625      -0.05518539
F        4.06564421       2.04310915      -0.02162962       0.12067061       0.11177357      -0.13475280
F        6.08066625       0.00427546      -0.01901187      -0.25745124       0.43328719       0.40916279
F        4.10586382       0.00455560       2.05334228      -0.00172418      -0.16607732       0.11357000
Li       0.02147704       4.07794316      -0.02799698       0.37880294       0.16987433       0.50627232
Li       0.00314729       6.10477517       1.95805953       0.43087112      -0.37044994      -0.06814966
Li       2.07883817       4.07216046       2.07836385      -0.21633056       0.00285624      -0.22426576
Li       2.03670445       6.06255278       0.05501035      -0.11169438      -0.28794324       0.33317075
F        2.02242784       6.11728232       2.03551608       0.17644041       0.16144574       0.08077223
F       -0.00066755       6.11550048       0.01691729       0.39165280      -0.44215415       0.28865878
F        2.05620493       4.05437892      -0.00109173       0.00680571       0.07300339      -0.28260589
F        0.03416407       4.08101614       2.01180209      -0.34140316      -0.02488596       0.16337664
Li       4.09231887       4.02483201      -0.00974905      -0.06440691       0.12555365       0.23106530
Li       4.12293703       6.09079418       2.05959526      -0.16007071      -0.14881057      -0.15762302
Li       6.05711446       4.07861838       2.04308674      -0.04004570      -0.05989796       0.00341031
Li       6.08940709       6.08436474       0.06603584      -0.83514084      -0.73183983       0.69494939
F        6.10605485       6.08870715       2.07777490       0.02267533       0.12712742      -0.19987576
F        4.07606011       6.16590835      -0.00276070       0.18653816      -0.06832115       0.05760582
F        6.09301119       4.10815544       0.00769183       0.07842970       0.03583732      -0.06539190
F        4.08423329       4.09263951       2.03144503      -0.05362498      -0.11921023       0.07713669
Li       0.01693005       0.02760368       4.06094170       0.33774191       0.39286919       0.19861361
Li      -0.00856017       2.06796152       6.14050926       0.36965599      -0.30643719      -0.50473378
Li       2.04160188       0.01639837       6.12889335      -0.31030798       0.35827371      -0.40498192
Li       2.05097167       2.02000921       4.17255531      -0.16176610      -0.02974175      -0.25244402
F        2.02116524       2.05601662       6.13170049       0.17472909      -0.01892666       0.18746736
F       -0.02888518       2.04436794       4.09475618      -0.10184834       0.11793779      -0.05475473
F        2.05749504      -0.00688876       4.05367573       0.08810168      -0.12281208       0.18331657
F       -0.01685925       0.02215582       6.13063429       0.53433437       0.41774693      -0.39814227
Li       4.09838276       0.00518158       4.14431183       0.02191146       0.24471528      -0.17128278
Li       4.05994476       2.03750386       6.09630538       0.14202157       0.06460822      -0.14714475
Li       6.12010485       0.00037880       6.13504267      -0.82659321       0.87355364      -0.81800444
Li       6.13469184       2.04617762       4.12207377      -0.26591943      -0.05510928      -0.08686138
F        6.09563076       2.00181828       6.12164645       0.08506649      -0.08349169       0.02097660
F        4.08625617       2.07213699       4.09013139      -0.14142790      -0.08997524       0.00845790
F        6.12358950      -0.00126170       4.08529871       0.09119163      -0.10010976       0.20364011
F        4.10021476      -0.01158802       6.14907355      -0.00554818      -0.03845933      -0.01508620
Li       0.02824500       4.10337068       4.04252923       0.16882686      -0.03731442      -0.03725014
Li       0.05947101       6.03960853       6.12967769       0.71516700      -0.55673254      -0.88507707
Li       2.01039272       4.10301647       6.07964874       0.12501475      -0.00762281      -0.17859243
Li       2.01551568       6.05397355       4.04533146      -0.07391742       0.02605093       0.01219834
F        2.03094237       6.13817916       6.09561435      -0.07690530      -0.06681834       0.12538345
F        0.01396844       6.18014216       4.08884820      -0.07382768      -0.22340675       0.11890452
F        2.03527026       4.09545181       4.05631634       0.04058306      -0.13235473       0.09899004
F        0.02432236       4.08407251       6.11625579      -0.08716143       0.16213171       0.09862160
Li       4.06018614       4.07316752       4.03180289       0.05311616      -0.01294370       0.15792487
Li       4.06671911       6.10428350       6.08101424       0.18632682      -0.38999213      -0.31940532
Li       6.05374834       4.11828742       5.97751359      -0.22959026       0.16344040      -0.07040760
Li       6.00506419       6.07857349       4.08267553      -0.01418375      -0.29520250       0.20259187
F        6.14536963       6.10439955       6.07775734      -0.54586063      -0.41233501      -0.48211218
F        4.08787605       6.08365050       4.08300656      -0.12777046       0.22719399      -0.10970460
F        6.16204647       4.03286727       4.04695327       0.02274604       0.05346712       0.04714092
F        4.07688079       4.10531943       6.11691236      -0.09544089      -0.11783983       0.11120690
64
Lattice="28.160000039244697 0.0 0.0 0.0 28.160000039244697 0.0 0.0 0.0 28.160000039244697" Properties=species:S:1:pos:R:3:REF_forces:R:3 config_type=LIF64_ISOLATED REF_energy=-32504.13761814272 pbc="T T T"
Li       0.10920084       0.00609892       0.06488642       0.63976914       0.79514862       0.77943532
Li      -0.01786461       2.03474344       2.04481725       0.31058438      -0.00824784      -0.01091048
Li       2.13097954       0.01390584       2.03502391      -0.09198687       0.29983022       0.01144501
Li       1.99178148       2.09952966       0.05763260       0.09605744      -0.16986610       0.17707599
F        2.00242937       2.03968989       1.99836871       0.19562341       0.01117839       0.27960464
F       -0.03916965       2.02975117      -0.01382219       0.06286167      -0.13028885      -0.04515423
F        2.08964762       0.01084078       0.04938467      -0.28483966      -0.14887330      -0.12735754
F       -0.04724667      -0.01366052       2.06341290       0.06010005      -0.00928117      -0.19921344
Li       4.14632442       0.03939684       0.00666401       0.04131711       0.37951257       0.41191592
Li       4.09830796       2.03365198       2.05207990      -0.00322982      -0.11777015      -0.07085575
Li       6.15236954       0.00812002       2.08315294      -0.54438044       0.46607673      -0.23474763
Li       6.09155215       2.02315715       0.01329019      -0.38631493      -0.19264299       0.42671879
F        6.13375680       2.03559984       2.04764662       0.16965424       0.02613526      -0.03996728
F        4.06690058       2.04596840      -0.01935343       0.11697234       0.10050956      -0.14928931
F        6.08006551       0.01131423      -0.01946970      -0.24447129       0.40968138       0.40108515
F        4.10696556       0.00700034       2.05194476      -0.00047257      -0.19454895       0.12404107
Li       0.02466427       4.07357300      -0.02657166       0.37186071       0.17741126       0.50790497
Li       0.00639475       6.10587673       1.95825370       0.42519464      -0.37543043      -0.08636747
Li       2.08527674       4.07163386       2.07935545      -0.23335049      -0.01336897      -0.21406876
Li       2.04525874       6.05979483       0.05236995      -0.13122551      -0.28457330       0.34417507
F        2.01662884       6.11538693       2.04225407       0.19939831       0.17456299       0.06154450
F        0.00129832       6.11855163       0.01607310       0.40103039      -0.44889764       0.29275943
F        2.05594538       4.05074995       0.00411535       0.01254544       0.11082277      -0.30651998
F        0.03598882       4.07819258       2.00922527      -0.36102736      -0.00987818       0.17650058
Li       4.09391910       4.02300564      -0.01503115      -0.05238160       0.11809642       0.25437698
Li       4.11784506       6.09717996       2.06507766      -0.13367731      -0.17002525      -0.17160391
Li       6.05811300       4.08298773       2.04654110      -0.04942046      -0.06773957      -0.01393024
Li       6.09553085       6.08595194       0.06449332      -0.84960304      -0.74471335       0.71079072
F        6.10669286       6.08466614       2.07569676       0.02440980       0.14722111      -0.18053489
F        4.07866267       6.16943012       0.00032170       0.16062761      -0.06526617       0.04946597
F        6.08999120       4.10881416       0.01000468       0.09503003       0.04269934      -0.08589002
F        4.08012630       4.09264011       2.03107191      -0.03216064      -0.09848148       0.08809654
Li       0.02289276       0.02868204       4.06049384       0.32904644       0.38294216       0.19541952
Li      -0.00660742       2.05940816       6.13165579       0.37102047      -0.28501604      -0.48329592
Li       2.04529548       0.01456631       6.12595532      -0.31589036       0.36776931      -0.39985951
Li       2.05008837       2.01630886       4.17298816      -0.14739980      -0.00696589      -0.26691136
F        2.01850655       2.05082677       6.12740917       0.18399431      -0.01339493       0.21043528
F       -0.02656250       2.04918609       4.09216440      -0.12512633       0.09859769      -0.04642101
F        2.05523539      -0.00786780       4.05392528       0.10171850      -0.14319708       0.17540014
F       -0.01662569       0.02062679       6.12689468       0.52808479       0.41493080      -0.40263681
Li       4.09972443      -0.00580917       4.14842343       0.01766888       0.28414032      -0.18808031
Li       4.06318759       2.04119923       6.09547633       0.11813293       0.05435981      -0.16477506
Li       6.12237071      -0.00244442       6.13574143      -0.82854854       0.88243037      -0.82726607
Li       6.13076480       2.04903848       4.12427878      -0.26127602      -0.06424004      -0.11020545
F        6.09166338       2.00109282       6.11523111       0.09378382      -0.08148160       0.05100220
F        4.08104561       2.07485952       4.08887924      -0.10736181      -0.11212427       0.01510934
F        6.12846083      -0.00027496       4.08320972       0.07388065      -0.11728293       0.21644189
F        4.09815449      -0.01024184       6.14818184       0.01152137      -0.05861010      -0.01626403
Li       0.02192489       4.10463628       4.04100744       0.20150995      -0.04966060      -0.03541052
Li       0.05934885       6.04020826       6.12843180       0.71330295      -0.56536296      -0.87389482
Li       2.01430226       4.10603104       6.08414282       0.10648532      -0.02992687      -0.20191079
Li       2.00958871       6.05629934       4.04264934      -0.05737571       0.00000874       0.02089510
F        2.03692096       6.13761048       6.09631930      -0.09302097      -0.06074077       0.12536262
F        0.01207964       6.18170919       4.09003397      -0.06994275      -0.23184846       0.12920179
F        2.03993269       4.08745821       4.05721273       0.00867259      -0.07122958       0.10569214
F        0.02481873       4.08531059       6.12436062      -0.08003973       0.16962930       0.07439924
Li       4.06219084       4.07430802       4.02940222       0.03433143      -0.02013791       0.15533423
Li       4.06104998       6.10464674       6.08866093       0.19070335      -0.38750921      -0.34545111
Li       6.05079877       4.11607109       5.97804346      -0.22102591       0.17040423      -0.08506315
Li       6.00108635       6.08427724       4.09071717       0.00013138      -0.30174595       0.18162736
F        6.14624715       6.10657793       6.07491680      -0.55341581      -0.42057951      -0.46476675
F        4.08970403       6.08913843       4.08202501      -0.14057764       0.21852963      -0.10101042
F        6.16414723       4.02958728       4.04684859       0.00937064       0.07137511       0.06163551
F        4.07459998       4.10302358       6.11432479      -0.07685336      -0.10305521       0.13474175
64
Lattice="28.160000039244697 0.0 0.0 0.0 28.160000039244697 0.0 0.0 0.0 28.160000039244697" Properties=species:S:1:pos:R:3:REF_forces:R:3 config_type=LIF64_ISOLATED REF_energy=-32504.15071416543 pbc="T T T"
Li       0.11287321       0.00496911       0.06632196       0.63600119       0.79878930       0.77580364
Li      -0.01438046       2.03623318       2.05566133       0.30710156      -0.01841707      -0.05335193
Li       2.13549245       0.00920722       2.03376461      -0.08565270       0.31631099      -0.00421867
Li       1.98219963       2.09924425       0.04904494       0.12084005      -0.16709882       0.20197584
F        2.00292289       2.03909241       1.99792100       0.18531380       0.02269076       0.29774892
F       -0.03602974       2.03355332      -0.01524251       0.04876894      -0.13138183      -0.05113898
F        2.08820031       0.01348006       0.04731315      -0.29087096      -0.15496836      -0.12039859
F       -0.04829672      -0.01065616       2.06109469       0.06485402      -0.01085443      -0.18135405
Li       4.15639924       0.04891352       0.01493119       0.01158873       0.36867357       0.39857884
Li       4.10137727       2.04578480       2.05694648      -0.02313839      -0.17075056      -0.10165756
Li       6.16012325       0.00690564       2.08682107      -0.56735531       0.45799138      -0.24048479
Li       6.09582612       2.03276042       0.02389654      -0.39920439      -0.21658202       0.39720150
F        6.13478000       2.03698583       2.03975392       0.17603212       0.04861673       0.00184091
F        4.06587545       2.04686368      -0.01650370       0.13018755       0.12859398      -0.14658013
F        6.07478082       0.00961274      -0.01780533      -0.20369513       0.41366376       0.40708019
F        4.10478173       0.01049969       2.05402421       0.00730142      -0.19558639       0.12403182
Li       0.01785901       4.07179497      -0.02756808       0.39027135       0.17535746       0.50408560
Li       0.00837827       6.10499521       1.96415287       0.42459969      -0.37296063      -0.10506993
Li       2.08657434       4.06864598       2.07979674      -0.24664053      -0.01896600      -0.23425732
Li       2.03955734       6.05312722       0.05755356      -0.12730329      -0.27424235       0.31554326
F        2.01793879       6.11737417       2.04437834       0.20311175       0.16982111       0.07996285
F        0.00727132       6.11566652       0.01285548       0.37970154      -0.44290569       0.31845967
F        2.05332357       4.05399194       0.00554938       0.02500886       0.09813438      -0.29733368
F        0.03756686       4.07479088       2.00830300      -0.36557179       0.01324607       0.19196653
Li       4.09719763       4.02737934      -0.00498600      -0.08307671       0.09689125       0.21133054
Li       4.11600468       6.09864954       2.06887029      -0.14292557      -0.16624239      -0.19095815
Li       6.05567351       4.08767815       2.03752397      -0.03468855      -0.08089050       0.00981519
Li       6.09078731       6.08565645       0.07309568      -0.83789450      -0.72672745       0.67395710
F        6.10682139       6.08520091       2.07178069       0.00838848       0.14146364      -0.16602873
F        4.07500778       6.17144432      -0.00196993       0.18210841      -0.08307594       0.08226476
F        6.09350451       4.10788035       0.00916517       0.08204056       0.05858001      -0.06036950
F        4.07627424       4.08834072       2.03066963      -0.00110583      -0.06403615       0.09629398
Li       0.02800024       0.03836291       4.05644104       0.31345090       0.35068716       0.19155387
Li      -0.00499064       2.05142534       6.13220124       0.36969430      -0.25639195      -0.47595105
Li       2.04164920       0.00723846       6.12747053      -0.29360507       0.37944006      -0.40223032
Li       2.05440711       2.01858865       4.16717699      -0.15108985      -0.01708678      -0.24609288
F        2.01904911       2.05374296       6.13083982       0.17558475      -0.02992481       0.18367601
F       -0.03007753       2.05246225       4.08792578      -0.10714610       0.08304406      -0.02776483
F        2.05925972      -0.00936311       4.05379591       0.06836512      -0.13103679       0.18346338
F       -0.02010923       0.01684403       6.12774695       0.54564028       0.43509108      -0.41375863
Li       4.09570143      -0.00425792       4.14659134       0.03651378       0.26514476      -0.18560382
Li       4.06278406       2.05272345       6.09134135       0.09437311       0.00385100      -0.14552804
Li       6.12983551      -0.00328474       6.13775729      -0.85633753       0.86545441      -0.84086798
Li       6.12946133       2.05953466       4.12881923      -0.25771041      -0.10611123      -0.13673461
F        6.09103467       1.99914234       6.11431739       0.09633384      -0.05321412       0.03713907
F        4.07689147       2.07256590       4.08645271      -0.07245446      -0.07189344       0.03729025
F        6.12828110      -0.01161673       4.07581324       0.08637055      -0.06843891       0.23777228
F        4.10186699      -0.01346144       6.14722119       0.00642107      -0.04425691      -0.01583645
Li       0.02634863       4.10191470       4.02931331       0.19138932      -0.03883651       0.00304727
Li       0.05293980       6.04115194       6.12684609       0.72524855      -0.58022676      -0.86794503
Li       2.01069610       4.11148418       6.08709021       0.08391901      -0.03525599      -0.19160478
Li       2.01610286       6.06212607       4.04362249      -0.08300601      -0.02105065       0.03415968
F        2.03661256       6.13113799       6.10300898      -0.07643478      -0.03851435       0.09677838
F        0.01439820       6.17908634       4.09141577      -0.06773366      -0.21889061       0.10925749
F        2.04087895       4.08492200       4.05752232       0.01597915      -0.05692654       0.09641123
F        0.02600072       4.09048271       6.12694195      -0.09053497       0.14232984       0.06529805
Li       4.05524223       4.07717421       4.03245746       0.04044371      -0.02852768       0.14241520
Li       4.07030066       6.09542853       6.08737627       0.17361271      -0.35937363      -0.31782075
Li       6.04566753       4.10697564       5.97901596      -0.20000226       0.19769418      -0.08092804
Li       6.00024640       6.08540209       4.09097731       0.01670266      -0.30640479       0.18588587
F        6.14498168       6.10950391       6.07449519      -0.56209149      -0.43748529      -0.47066280
F        4.09127587       6.08249308       4.08096324      -0.14965594       0.23487130      -0.10184217
F        6.16309532       4.03151327       4.04668263      -0.00000668       0.05898008       0.06432386
F        4.07202654       4.10613571       6.11768714      -0.04632896      -0.12987825       0.11796093
64
Lattice="28.160000039244697 0.0 0.0 0.0 28.160000039244697 0.0 0.0 0.0 28.160000039244697" Properties=species:S:1:pos:R:3:REF_forces:R:3 config_type=LIF64_ISOLATED REF_energy=-32504.14025764695 pbc="T T T"
Li       0.11225300      -0.00548090       0.06761252       0.66537990       0.80893693       0.78135979
Li      -0.01640603       2.04095340       2.05207719       0.32537208      -0.04294899      -0.05618477
Li       2.13282513       0.01347909       2.04461629      -0.07834023       0.31215018      -0.04912607
Li       1.98430975       2.10683874       0.04544543       0.12489416      -0.20416385       0.21637067
F        2.00398896       2.03989404       1.99682474       0.16095980       0.04074504       0.31182545
F       -0.03185976       2.02842640      -0.01486119       0.01944011      -0.10302590      -0.04899803
F        2.08834540       0.01474008       0.04744893      -0.29363592      -0.16875127      -0.12039730
F       -0.04397144      -0.01933035       2.06174886       0.05177482       0.00924903      -0.16363992
Li       4.15653681       0.05178982       0.01436250      -0.00220549       0.35975235       0.40965541
Li       4.10444101       2.05161638       2.05326562      -0.02869403      -0.19444096      -0.07972965
Li       6.16338802       0.00170150       2.08948557      -0.57362623       0.48032732      -0.25037120
Li       6.09646695       2.03056729       0.01685403      -0.40232545      -0.22420251       0.42196019
F        6.13800723       2.03750179       2.03965297       0.16254437       0.04879157      -0.01150594
F        4.06302598       2.04263054      -0.01633888       0.15226459       0.17059141      -0.15157707
F        6.07590369       0.00786993      -0.01700776      -0.20030256       0.41552909       0.39732466
F        4.10553325       0.01140713       2.05442195       0.01280538      -0.20576616       0.13700663
Li       0.00984808       4.06726525      -0.02703552       0.41057484       0.16849879       0.49467459
Li       0.00566961       6.09905314       1.95842254       0.43189905      -0.35332665      -0.08553057
Li       2.08348128       4.07736311       2.08464583      -0.23272212      -0.05052989      -0.23956999
Li       2.02838312       6.05189554       0.05669370      -0.11338848      -0.26863374       0.31295545
F        2.01646432       6.12184127       2.04687095       0.20408286       0.14342385       0.05657044
F        0.01045493       6.11694567       0.00904791       0.36577799      -0.45165387       0.32232121
F        2.05354346       4.05496481       0.00600355       0.02133373       0.12345537      -0.28947433
F        0.03295188       4.07455859       2.00630146      -0.36598394       0.02019782       0.18526161
Li       4.10415765       4.03915544       0.00213667      -0.10587263       0.05900399       0.19186266
Li       4.11838403       6.09617459       2.06188341      -0.14597207      -0.14351924      -0.16707928
Li       6.05308748       4.09080454       2.03156426      -0.00694532      -0.10382243       0.03131398
Li       6.08709292       6.09178417       0.06472726      -0.82492405      -0.72927541       0.68883608
F        6.10638453       6.08646524       2.07112452       0.00368156       0.13701254      -0.17838314
F        4.07844195       6.17643887      -0.00256275       0.17860631      -0.10084329       0.08508269
F        6.09291990       4.10600639       0.00899282       0.07382640       0.07989934      -0.07052665
F        4.07827447       4.08807158       2.03290239      -0.01265728      -0.03859740       0.06757528
Li       0.02617103       0.03912902       4.06270538       0.31989177       0.34397195       0.17533252
Li      -0.00948925       2.05003206       6.13588057       0.38660316      -0.25721213      -0.48047670
Li       2.04427253       0.00585181       6.12559489      -0.28129257       0.38712200      -0.40117643
Li       2.04845363       2.01705136       4.16210476      -0.10832392      -0.00580632      -0.23424498
F        2.01740018       2.05282716       6.12768079       0.15855916      -0.01880813       0.20718206
F       -0.03239740       2.05605751       4.08855506      -0.11650568       0.06843171      -0.03356112
F        2.06115599      -0.00885433       4.05384709       0.04729570      -0.14091265       0.19102345
F       -0.01788454       0.01861516       6.13013806       0.53014553       0.43338052      -0.41948037
Li       4.09898131      -0.01259558       4.14067043       0.02920053       0.29952683      -0.17299153
Li       4.05919688       2.05853479       6.09505636       0.08896891      -0.00547645      -0.18145355
Li       6.12457978       0.00676523       6.14299695      -0.84965832       0.84581838      -0.83817166
Li       6.12671591       2.05199655       4.13275318      -0.26280737      -0.08581083      -0.15636190
F        6.09225098       1.99408546       6.11403569       0.09122994      -0.03307261       0.05449505
F        4.07162713       2.07254530       4.08984197      -0.04367430      -0.06507179       0.02397605
F        6.13064310      -0.00801265       4.07549467       0.07863385      -0.08404216       0.23651578
F        4.10102056      -0.01571419       6.15020916       0.00763823      -0.04454179      -0.01989674
Li       0.02330989       4.09911874       4.03304716       0.20233142      -0.03439056       0.00098062
Li       0.05074852       6.04198668       6.11960291       0.73064350      -0.56946027      -0.85151543
Li       2.00236859       4.10874744       6.09042879       0.10669872      -0.03160683      -0.20556998
Li       2.01530306       6.05952826       4.04793440      -0.07612522      -0.01304269       0.03108567
F        2.03431387       6.13176268       6.10983114      -0.07310700      -0.04269188       0.08562159
F        0.01951355       6.17808364       4.08915376      -0.09067330      -0.22008874       0.11729527
F        2.04028163       4.08381698       4.05950846      -0.00585877      -0.03796645       0.08218737
F        0.02427168       4.09430389       6.12563384      -0.10426338       0.12538010       0.06740430
Li       4.05846380       4.09410154       4.03040549       0.02763627      -0.10333084       0.15923510
Li       4.07236801       6.09413012       6.09587060       0.16321311      -0.36092169      -0.33931954
Li       6.04725423       4.11096936       5.97650736      -0.20240341       0.18246656      -0.09007757
Li       6.00442965       6.07798844       4.09124851       0.00591174      -0.29198450       0.17433442
F        6.14527379       6.11143090       6.06690213      -0.55619569      -0.44047085      -0.44410151
F        4.09036808       6.07419844       4.08214383      -0.14325647       0.26135212      -0.10736850
F        6.16689925       4.03050292       4.04539901      -0.00672986       0.06834481       0.07331706
F        4.07139710       4.10673037       6.11545000      -0.03134869      -0.12314736       0.14591782
64
Lattice="28.160000039244697 0.0 0.0 0.0 28.160000039244697 0.0 0.0 0.0 28.160000039244697" Properties=species:S:1:pos:R:3:REF_forces:R:3 config_type=LIF64_ISOLATED REF_energy=-32504.12142668903 pbc="T T T"
Li       0.11243699      -0.00424353       0.06677485       0.66522769       0.80857826       0.78666192
Li      -0.01015952       2.04272729       2.05685439       0.28821269      -0.04103841      -0.07385931
Li       2.13564020       0.01612550       2.04599840      -0.08614327       0.29262316      -0.06543046
Li       1.98737134       2.10740073       0.04955522       0.11638176      -0.21214995       0.18669629
F        1.99936647       2.03840099       1.98579796       0.17596810       0.05076129       0.38426988
F       -0.03567036       2.03113109      -0.01638458       0.03183129      -0.11980184      -0.05040005
F        2.08933357       0.00961288       0.05224964      -0.30530590      -0.16384612      -0.13758821
F       -0.04405157      -0.02088097       2.06178908       0.05582971       0.01538034      -0.14828683
Li       4.15105857       0.04586793       0.01934257       0.01847003       0.36845014       0.40855189
Li       4.10630669       2.05584918       2.06585131      -0.01862173      -0.21446677      -0.12371043
Li       6.17278899       0.00162052       2.09392072      -0.59618277       0.48699831      -0.27244335
Li       6.09437585       2.03805057       0.01383820      -0.40802096      -0.25823620       0.42955883
F        6.14326405       2.03998671       2.04070628       0.14645492       0.03197707      -0.01205925
F        4.06231823       2.04070445      -0.01143333       0.15035837       0.19616746      -0.16054997
F        6.07325665       0.00138626      -0.01951613      -0.19594249       0.42999284       0.40820351
F        4.10282616       0.01348510       2.04962168       0.02255680      -0.19581162       0.17948768
Li       0.01104791       4.06172316      -0.02903266       0.40035084       0.16356253       0.49492579
Li       0.00761187       6.10114166       1.94949392       0.41453279      -0.36577002      -0.05741145
Li       2.08523087       4.07455646       2.07604472      -0.24369687      -0.03500171      -0.21517614
Li       2.02064023       6.05474607       0.06897724      -0.09742784      -0.27454522       0.27790257
F        2.01723572       6.12091726       2.04565376       0.19725838       0.14710387       0.05779069
F        0.01279949       6.11641479       0.00970061       0.35944614      -0.43409992       0.31619530
F        2.04636338       4.05464510       0.00349484       0.05648894       0.12660600      -0.27384486
F        0.03057276       4.07439069       2.00575796      -0.34410462       0.02598074       0.18335128
Li       4.10632892       4.03666398       0.00341930      -0.11950539       0.06337127       0.18825206
Li       4.12376921       6.09258981       2.06233170      -0.14897409      -0.13446972      -0.17610900
Li       6.05615774       4.08842373       2.02480612      -0.00001440      -0.09766644       0.05352497
Li       6.08965520       6.09138663       0.05374033      -0.83659455      -0.73034499       0.71502173
F        6.10793987       6.08221812       2.07077727       0.00884048       0.14529972      -0.18507803
F        4.08312194       6.17574727       0.00186105       0.17685513      -0.10617988       0.07332658
F        6.09186386       4.10067163       0.00897044       0.08017420       0.08871052      -0.08836316
F        4.07987253       4.08922970       2.03524706      -0.02615866      -0.06100019       0.05689337
Li       0.02483998       0.03421076       4.06175795       0.31508792       0.35042053       0.17548576
Li      -0.00787886       2.04354372       6.14415481       0.37559678      -0.23175127      -0.49410766
Li       2.04981341       0.00429856       6.13622651      -0.28800032       0.38700682      -0.42141281
Li       2.03723387       2.01152743       4.16309207      -0.09701389       0.01011421      -0.21663884
F        2.01775417       2.05471211       6.12767546       0.17014249      -0.03470886       0.21022419
F       -0.04009473       2.06131885       4.08947138      -0.07300416       0.03174233      -0.03822408
F        2.06207336      -0.01078540       4.05698416       0.03740647      -0.11722713       0.17704925
F       -0.01647419       0.01858137       6.13204054       0.53507434       0.43204380      -0.41181745
Li       4.09535529      -0.00577078       4.14194652       0.03348939       0.27008307      -0.17910562
Li       4.06522942       2.05530484       6.09249301       0.06237702       0.00110377      -0.16966376
Li       6.12993146       0.01106540       6.14325189      -0.85782389       0.82845186      -0.84140457
Li       6.11922538       2.05407805       4.13901611      -0.23427866      -0.08547941      -0.18688346
F        6.09285223       1.99742320       6.11554985       0.08201511      -0.03673489       0.05693065
F        4.07037999       2.07194813       4.09463376      -0.04649197      -0.05788093       0.00906211
F        6.12349472      -0.00610225       4.07690318       0.10032316      -0.07845079       0.24131937
F        4.10153556      -0.01806844       6.14706417       0.01029393      -0.02646539       0.00456525
Li       0.03433138       4.09949812       4.03167380       0.16149202      -0.03113786       0.00522345
Li       0.05931709       6.03862986       6.11598434       0.70449924      -0.56253475      -0.84217435
Li       2.01159143       4.10782097       6.08662770       0.07928382      -0.02623682      -0.19766770
Li       2.01078554       6.06521010       4.04915869      -0.06710065      -0.02251464       0.02372203
F        2.03446234       6.13444892       6.10564161      -0.05525224      -0.04324801       0.09186963
F        0.01961685       6.18222823       4.09007032      -0.07447689      -0.22435600       0.11265494
F        2.03915880       4.08365133       4.05640346       0.00956707      -0.04608857       0.08311117
F        0.02549279       4.09366179       6.12765538      -0.07981424       0.12622214       0.06647382
Li       4.06160819       4.09837645       4.03193552       0.01037543      -0.09920884       0.14911601
Li       4.08116496       6.09900004       6.10336894       0.14515729      -0.36352159      -0.35708586
Li       6.04532041       4.10801933       5.97289994      -0.18640369       0.19789241      -0.09104662
Li       5.99542972       6.08328355       4.09063853       0.04435282      -0.30009376       0.16194607
F        6.14766580       6.11220310       6.06230283      -0.56691539      -0.43845485      -0.43465784
F        4.09058354       6.07549283       4.08026285      -0.14501202       0.26372062      -0.09664468
F        6.16771318       4.02635111       4.03996685      -0.02714056       0.07678934       0.11246674
F        4.07092268       4.11406703       6.11776553      -0.01635144      -0.14663130       0.13701100
64
Lattice="28.160000039244697 0.0 0.0 0.0 28.160000039244697 0.0 0.0 0.0 28.160000039244697" Properties=species:S:1:pos:R:3:REF_forces:R:3 config_type=LIF64_ISOLATED REF_energy=-32504.127664082444 pbc="T T T"
Li       0.11642027      -0.00273222       0.07258187       0.63976580       0.80888268       0.78399954
Li      -0.01328477       2.04901322       2.05547103       0.29555242      -0.05743305      -0.07266863
Li       2.14257250       0.01208189       2.04232968      -0.11286757       0.30595639      -0.05191417
Li       1.99516260       2.10528052       0.05205385       0.08750313      -0.18949005       0.18194154
F        2.00024327       2.03359124       1.98174352       0.18203128       0.06263824       0.40221129
F       -0.03686230       2.03005583      -0.01516275       0.04326807      -0.12307100      -0.04649737
F        2.08758525       0.00928940       0.05700656      -0.26833652      -0.17251537      -0.16271406
F       -0.04595523      -0.02456245       2.06255018       0.06500083       0.01334634      -0.14431088
Li       4.14757761       0.04158000       0.01005510       0.02803479       0.38399271       0.42688051
Li       4.11033481       2.05445570       2.06877833      -0.03354261      -0.20290889      -0.13128258
Li       6.16369157      -0.01062307       2.09241985      -0.58171852       0.50623453      -0.27926783
Li       6.09404810       2.03749108       0.01322042      -0.39922187      -0.25938831       0.43629101
F        6.14488076       2.04095411       2.04041874       0.13425144       0.02986259      -0.00099502
F        4.06121734       2.05053283      -0.00740915       0.15698667       0.13810218      -0.17308435
F        6.07259650       0.00418453      -0.01763813      -0.20949246       0.41965777       0.39225058
F        4.10633687       0.00877598       2.04413829       0.01904673      -0.19716093       0.19773480
Li       0.01505731       4.05996835      -0.02427030       0.39112624       0.17019392       0.47459942
Li       0.00585700       6.09358888       1.94349341       0.41839999      -0.34878968      -0.05419834
Li       2.09165884       4.07660298       2.07254523      -0.26113024      -0.02611495      -0.20232885
Li       2.02865613       6.05468553       0.06148715      -0.12384953      -0.28077809       0.29332713
F        2.01724933       6.12018797       2.04532483       0.20333055       0.16212425       0.03039764
F        0.01035948       6.11654475       0.00595378       0.37131255      -0.43295423       0.31697563
F        2.04434785       4.05846876       0.00145435       0.07275296       0.10247106      -0.26828587
F        0.02803294       4.07743610       2.00024041      -0.33716264       0.00447012       0.19990764
Li       4.11323586       4.02892188       0.01075140      -0.15013314       0.08366987       0.17950645
Li       4.12604480       6.11048931       2.05474165      -0.16633880      -0.17886239      -0.14083346
Li       6.06115980       4.08608479       2.02975630      -0.02201790      -0.08764762       0.06042632
Li       6.08360418       6.07598323       0.05302817      -0.81718606      -0.69830313       0.70365668
F        6.10557846       6.08193621       2.07430602       0.01858316       0.13755145      -0.19834158
F        4.08392404       6.17470605       0.00040219       0.18853257      -0.09881649       0.07419998
F        6.09302080       4.09634089       0.00826663       0.08441754       0.09375888      -0.07810240
F        4.07546693       4.09456055       2.03554531       0.01852326      -0.08757563       0.04499122
Li       0.02607683       0.02825401       4.06211317       0.30523931       0.36228978       0.16922898
Li      -0.00557727       2.04312882       6.14223518       0.36706406      -0.22196899      -0.48519108
Li       2.05167618       0.00972591       6.13890173      -0.28662555       0.37946063      -0.40680997
Li       2.03912631       2.00486125       4.16760468      -0.11354557       0.03429800      -0.22796635
F        2.01971916       2.05759642       6.13325363       0.16581996      -0.05430376       0.17994508
F       -0.04055215       2.06121610       4.08783684      -0.06142700       0.03148470      -0.03737767
F        2.06166543      -0.01196020       4.06120347       0.06130410      -0.11786760       0.15920348
F       -0.01721470       0.01953997       6.13001684       0.54018929       0.43050706      -0.41033084
Li       4.09103661      -0.00815318       4.14221689       0.03552982       0.27192630      -0.15689000
Li       4.06878277       2.05977245       6.08578730       0.06575673       0.00041163      -0.13587329
Li       6.13433124       0.00787287       6.13448805      -0.86960083       0.84097776      -0.81543771
Li       6.12122773       2.04645838       4.13347330      -0.23446738      -0.05971490      -0.16084770
F        6.09112720       1.99739951       6.11538070       0.09161303      -0.04449808       0.03684185
F        4.06636748       2.07352964       4.09174338      -0.03434094      -0.08277410       0.00147299
F        6.12175704      -0.00376963       4.07817596       0.09647088      -0.09437363       0.22547778
F        4.10277229      -0.01680201       6.15213324       0.00630255      -0.03186651      -0.03018501
Li       0.03702365       4.09455064       4.03402982       0.16309459      -0.00967660       0.00851164
Li       0.05509456       6.04482789       6.12058016       0.73047998      -0.58222040      -0.85733718
Li       2.01456511       4.10845568       6.08122702       0.06867545      -0.00469149      -0.18514514
Li       2.00730954       6.06944608       4.04398682      -0.06087807      -0.03151273       0.04436259
F        2.03238922       6.13816112       6.10628322      -0.05003675      -0.04620967       0.10125441
F        0.02372970       6.18327793       4.09076362      -0.09685628      -0.22243462       0.10926520
F        2.03736194       4.08559403       4.05481772       0.01298536      -0.07426169       0.07820422
F        0.02651411       4.09321685       6.12762915      -0.08670146       0.12543281       0.06292389
Li       4.06031545       4.09648809       4.02596550       0.00076490      -0.06745083       0.16197770
Li       4.09097302       6.09681656       6.10932672       0.10696535      -0.36129913      -0.37373838
Li       6.04797940       4.11388209       5.97113479      -0.19386529       0.17369036      -0.08076478
Li       5.99661392       6.08462070       4.09250753       0.01964554      -0.30462816       0.15725793
F        6.15320906       6.11060578       6.06485384      -0.57278496      -0.43366746      -0.43957122
F        4.08663578       6.07350043       4.08136187      -0.10153209       0.28245959      -0.09598802
F        6.16569132       4.02445294       4.04567849      -0.01668106       0.07604629       0.07469209
F        4.06833620       4.11482382       6.11814767       0.00602075      -0.14466852       0.13436277
64
Lattice="28.160000039244697 0.0 0.0 0.0 28.160000039244697 0.0 0.0 0.0 28.160000039244697" Properties=species:S:1:pos:R:3:REF_forces:R:3 config_type=LIF64_ISOLATED REF_energy=-32504.151737857694 pbc="T T T"
Li       0.11591318      -0.00410918       0.07201393       0.63733996       0.80668490       0.78480070
Li      -0.01313129       2.04132520       2.04899846       0.29416505      -0.05086979      -0.04933767
Li       2.13962363       0.01161828       2.03395705      -0.08587202       0.29899976      -0.00438990
Li       1.99976266       2.10530395       0.05456026       0.08220871      -0.18817261       0.18565576
F        1.99967880       2.02790143       1.98558930       0.17708087       0.09682157       0.36552911
F       -0.03744549       2.03220656      -0.01487208       0.05088059      -0.13277151      -0.03823050
F        2.08845781       0.01007949       0.05646311      -0.27729810      -0.16867105      -0.18128926
F       -0.04589517      -0.02647607       2.06572041       0.06101202       0.01764831      -0.18247968
Li       4.14438570       0.03377803       0.00286442       0.05080268       0.38358314       0.45784277
Li       4.11949446       2.05533371       2.06276233      -0.06393228      -0.22467225      -0.10782435
Li       6.17189498      -0.00023178       2.09789200      -0.60759950       0.46719875      -0.28451570
Li       6.08520378       2.03568443       0.01689741      -0.37679054      -0.26760325       0.41796393
F        6.14609999       2.03887472       2.04320985       0.13355673       0.04713038      -0.01113056
F        4.06925656       2.04944551      -0.00879260       0.12128639       0.15242837      -0.16866591
F        6.07072247       0.00031196      -0.01680794      -0.20761170       0.43103747       0.38515820
F        4.10553065       0.00375819       2.04501195       0.02187957      -0.16743229       0.17606400
Li       0.01789008       4.05999642      -0.01883815       0.37680545       0.16996689       0.46256743
Li      -0.00007053       6.09067908       1.94521212       0.43090815      -0.33305479      -0.06021524
Li       2.08732829       4.08043586       2.07417427      -0.24212696      -0.03401441      -0.20780813
Li       2.02818914       6.05381047       0.05453440      -0.12554491      -0.27244592       0.32401325
F        2.02461807       6.11542601       2.04600593       0.16630744       0.17371119       0.03232211
F        0.00735877       6.12029412       0.00670917       0.38360216      -0.44311575       0.32547441
F        2.04208116       4.06066232       0.00445886       0.07886756       0.08748744      -0.28127689
F        0.02442316       4.07893924       2.00280536      -0.32278786       0.00528645       0.19363852
Li       4.11493382       4.03480382       0.00954440      -0.15538385       0.07264292       0.18945328
Li       4.12656749       6.11294301       2.06139304      -0.18273807      -0.18561668      -0.14957907
Li       6.06442210       4.09582268       2.03010799      -0.02641963      -0.10929785       0.07521531
Li       6.07675102       6.06943826       0.06011580      -0.79327686      -0.67412345       0.68408288
F        6.11019930       6.07950232       2.08112788       0.00328458       0.14588671      -0.21730373
F        4.08476108       6.17699116       0.00547050       0.19491353      -0.10643981       0.05959483
F        6.09310223       4.09568394       0.00642714       0.07507570       0.10604206      -0.05900887
F        4.07084619       4.09660881       2.03210223       0.05415180      -0.10318068       0.05173882
Li       0.02822242       0.03316877       4.06242821       0.30817268       0.33930540       0.16308250
Li      -0.00789565       2.03874990       6.13650932       0.35469577      -0.21320127      -0.48325272
Li       2.04682666       0.01864004       6.14185740      -0.27273337       0.34911467      -0.42234278
Li       2.03305894       2.00614119       4.17322065      -0.09217456       0.01240249      -0.26328585
F        2.01860065       2.05308593       6.12775544       0.16409526      -0.03413757       0.20761067
F       -0.04092156       2.05537003       4.08467377      -0.05633004       0.06058599      -0.02685209
F        2.06247004      -0.01661108       4.05866030       0.05135264      -0.09434175       0.18019911
F       -0.01836433       0.02116640       6.12513587       0.53585107       0.43446373      -0.39215340
Li       4.08676272      -0.00155218       4.14761945       0.03527194       0.24796413      -0.17793782
Li       4.07394293       2.06402630       6.09086016       0.07524179      -0.00359852      -0.15727772
Li       6.13168263       0.01220239       6.13496976      -0.86127122       0.83350665      -0.81998368
Li       6.11857190       2.04245405       4.12496535      -0.22705078      -0.04691081      -0.12533845
F        6.09651769       1.99726653       6.11135869       0.07435785      -0.03863340       0.04932944
F        4.06978341       2.07348331       4.09342973      -0.04996939      -0.06839520      -0.00701577
F        6.11983517      -0.00026165       4.07907775       0.11349158      -0.09333284       0.21639278
F        4.10652565      -0.01998510       6.15156446      -0.00576801      -0.00717029      -0.01211478
Li       0.04144373       4.10188163       4.02964468       0.13935791      -0.02758228       0.02046958
Li       0.06342840       6.04949481       6.12621550       0.69822317      -0.59447453      -0.86590306
Li       2.01084970       4.11114820       6.08314984       0.07883491      -0.02078146      -0.19054060
Li       2.00743892       6.06795063       4.04708264      -0.06103208      -0.02785816       0.02198910
F        2.03008417       6.13341300       6.10420078      -0.04108340      -0.01918711       0.11252844
F        0.02347398       6.18562255       4.08938847      -0.08351072      -0.22360884       0.10669024
F        2.03814776       4.08725623       4.05675078      -0.00245540      -0.08271573       0.07419304
F        0.02342134       4.09442878       6.12618656      -0.06733205       0.12546932       0.06267064
Li       4.05624113       4.09214775       4.02061070       0.01584314      -0.06523969       0.17639593
Li       4.08439584       6.10441953       6.10397756       0.12280849      -0.39164920      -0.36366506
Li       6.04832097       4.12385714       5.96396533      -0.19411160       0.15017042      -0.06713819
Li       5.99598797       6.08910882       4.09728953       0.02436275      -0.31705790       0.14906588
F        6.15059929       6.11135093       6.06469349      -0.56892985      -0.40987704      -0.44206699
F        4.08610592       6.07178433       4.08031613      -0.10525916       0.30193621      -0.08378325
F        6.16552968       4.02774165       4.04569860      -0.01898400       0.07190733       0.05352574
F        4.06920257       4.11738818       6.11816686      -0.01071224      -0.14814671       0.13844979
64
Lattice="28.160000039244697 0.0 0.0 0.0 28.160000039244697 0.0 0.0 0.0 28.160000039244697" Properties=species:S:1:pos:R:3:REF_forces:R:3 config_type=LIF64_ISOLATED REF_energy=-32504.16668820016 pbc="T T T"
Li       0.11201514      -0.00531836       0.07562858       0.64520780       0.80309384       0.76748072
Li      -0.01598645       2.03905893       2.04459006       0.30424995      -0.03982844      -0.02536059
Li       2.13474610       0.01152157       2.03373736      -0.07166539       0.29512639       0.00058904
Li       1.99292720       2.10036700       0.05119965       0.10057693      -0.18986620       0.19301426
F        1.99904973       2.02444477       1.98397294       0.17378575       0.11620975       0.35443917
F       -0.04104328       2.02870438      -0.02065179       0.06549834      -0.12229684      -0.01693020
F        2.08960620       0.00607559       0.05463673      -0.29441188      -0.15095641      -0.18118898
F       -0.04325823      -0.02225541       2.06673283       0.04251782       0.00262432      -0.19515136
Li       4.14440316       0.03649760      -0.00024657       0.05282717       0.37408754       0.46538150
Li       4.11939432       2.04944925       2.06495445      -0.05723378      -0.22407935      -0.12567886
Li       6.16543535       0.00841946       2.10170394      -0.59788124       0.44544311      -0.29016570
Li       6.09427570       2.03177335       0.01441198      -0.40137234      -0.25407307       0.43146376
F        6.14547780       2.03992834       2.04032705       0.12707934       0.03415325       0.00150769
F        4.07695869       2.05053671      -0.00656349       0.08436946       0.13897404      -0.17914264
F        6.06890070      -0.00615148      -0.01600064      -0.20134232       0.44359423       0.38044562
F        4.10084487       0.00105740       2.04510782       0.03282502      -0.15077592       0.18269359
Li       0.02269979       4.06953731      -0.01258976       0.36193753       0.15074095       0.45000990
Li       0.00101446       6.10358906       1.93770490       0.43241121      -0.35666986      -0.02896631
Li       2.08868492       4.08023717       2.07432879      -0.26445699      -0.04690489      -0.19172691
Li       2.03284819       6.04692047       0.05530719      -0.13062901      -0.25085688       0.31917726
F        2.02068337       6.11801099       2.04949918       0.19613686       0.16715384       0.01163501
F        0.01425384       6.11960982       0.00655433       0.37737469      -0.43310747       0.31119733
F        2.04572159       4.05883614       0.00277710       0.06970389       0.09616260      -0.27441204
F        0.02612070       4.08240040       2.00200405      -0.32158099      -0.00047231       0.17464527
Li       4.10598367       4.03687205       0.01144947      -0.11883562       0.02813095       0.17352015
Li       4.13245801       6.11160215       2.06308704      -0.21395538      -0.17257296      -0.14568873
Li       6.05481246       4.10729837       2.02896169       0.01227727      -0.18003996       0.06246367
Li       6.06248425       6.06844980       0.06329386      -0.74980542      -0.67855475       0.64895441
F        6.11209703       6.07782055       2.08073738      -0.02542615       0.15303489      -0.20733839
F        4.08712973       6.17597635       0.00248268       0.17733850      -0.10834372       0.08556914
F        6.09222384       4.09269168       0.00663763       0.06233922       0.14149706      -0.05075306
F        4.06534568       4.09181030       2.03107453       0.07333943      -0.05219185       0.07022557
Li       0.02260284       0.02904762       4.05774912       0.33078014       0.36406101       0.18470214
Li      -0.00071016       2.04055576       6.13673634       0.33471469      -0.21270376      -0.49636226
Li       2.04573193       0.02140931       6.14768778      -0.26980848       0.34669166      -0.44459542
Li       2.03786592       2.01352112       4.17430758      -0.11232944      -0.00868981      -0.26041290
F        2.02009513       2.05690779       6.12936710       0.16269709      -0.04748159       0.21977944
F       -0.03950480       2.05739040       4.08569655      -0.06244593       0.05824217      -0.04361568
F        2.06203295      -0.01808250       4.05856590       0.05010026      -0.08903525       0.18550381
F       -0.02145491       0.02259779       6.12087749       0.54326844       0.42925956      -0.37714098
Li       4.08106528      -0.00317014       4.14645398       0.04342002       0.24676291      -0.16629998
Li       4.07531027       2.06764821       6.09269221       0.08409050      -0.00769274      -0.16212142
Li       6.13091434       0.01549430       6.13692424      -0.86631933       0.83271192      -0.82638701
Li       6.11736176       2.04131141       4.12704978      -0.22194174      -0.04539411      -0.12058217
F        6.09597588       2.00063569       6.11071256       0.08880899      -0.04296493       0.07348496
F        4.07243277       2.07123726       4.10117466      -0.06948303      -0.04975907      -0.05208027
F        6.11637118       0.00362260       4.08043503       0.12275012      -0.09812204       0.20749394
F        4.11102891      -0.01974490       6.15148031      -0.02566012      -0.00924543       0.00417239
Li       0.03650605       4.10712342       4.02934634       0.14555966      -0.03682745       0.02364824
Li       0.06846490       6.05297525       6.12834568       0.67567306      -0.60312141      -0.87227503
Li       2.00729850       4.11327151       6.08557779       0.08278078      -0.02898816      -0.19859252
Li       2.01069821       6.06566040       4.04674485      -0.08770779      -0.02881872       0.02810164
F        2.02342858       6.13319531       6.10332302      -0.00418961      -0.01587271       0.11701630
F        0.01999811       6.18484063       4.09267411      -0.07449103      -0.21402017       0.09700849
F        2.03694168       4.08506246       4.05968737       0.02168160      -0.06501086       0.05446805
F        0.02261137       4.09258801       6.12472862      -0.06408346       0.13729537       0.07687650
Li       4.06204885       4.09430074       4.01600813       0.00382580      -0.09442711       0.21056512
Li       4.08968682       6.10595469       6.10156364       0.11533660      -0.39959237      -0.35688480
Li       6.05250883       4.13163011       5.97170423      -0.20165831       0.11945294      -0.09496627
Li       5.99956585       6.08829936       4.09088323       0.02594989      -0.31872475       0.17521965
F        6.14911523       6.11359979       6.06279000      -0.56229332      -0.40364237      -0.44530170
F        4.08610320       6.07356429       4.07971403      -0.08768747       0.28984869      -0.09905046
F        6.17031137       4.02102574       4.04617530      -0.04194163       0.13019835       0.04600141
F        4.07407510       4.11619930       6.11849321      -0.02259743      -0.11282721       0.14071776
64
Lattice="28.160000039244697 0.0 0.0 0.0 28.160000039244697 0.0 0.0 0.0 28.160000039244697" Properties=species:S:1:pos:R:3:REF_forces:R:3 config_type=LIF64_ISOLATED REF_energy=-32504.17764649655 pbc="T T T"
Li       0.11065614      -0.00757341       0.08029237       0.64739349       0.80651752       0.76969161
Li      -0.01901585       2.04337621       2.04870182       0.32681472      -0.05131331      -0.03051385
Li       2.14367142       0.01088413       2.03502172      -0.11377414       0.30804721       0.00372836
Li       1.99809658       2.09471131       0.04383081       0.06318846      -0.18369427       0.22383150
F        1.99586949       2.02600701       1.98479327       0.21041368       0.10575590       0.31917469
F       -0.03968703       2.02760048      -0.02061325       0.05737751      -0.11656868      -0.01911152
F        2.08622958       0.00264611       0.05097095      -0.26401784      -0.13987675      -0.17072639
F       -0.03810198      -0.02576910       2.07004259       0.01888192       0.00306501      -0.20744817
Li       4.14185489       0.03413695      -0.00178778       0.06053534       0.35867018       0.46018427
Li       4.12547087       2.05433264       2.05746174      -0.08930135      -0.23416605      -0.09626056
Li       6.16346117       0.00587743       2.10391567      -0.59051812       0.43689188      -0.30615874
Li       6.08858855       2.03980475       0.00925611      -0.37918321      -0.28419252       0.43679752
F        6.14823634       2.04391592       2.04101713       0.10630329       0.02055777      -0.00512267
F        4.07770232       2.04700975      -0.00685110       0.08975387       0.16341340      -0.18001887
F        6.06399849      -0.01023806      -0.01666490      -0.19464999       0.45761240       0.37877312
F        4.10474864      -0.00137598       2.04214034       0.02712411      -0.14105766       0.19912834
Li       0.01964361       4.07452752      -0.00867241       0.36672133       0.11340159       0.44510861
Li       0.00056954       6.10359263       1.92987129       0.42715794      -0.36069132       0.01933675
Li       2.09045050       4.08123456       2.06425412      -0.26993318      -0.06308716      -0.14479013
Li       2.02747951       6.05092328       0.05650393      -0.11179465      -0.26349668       0.31947422
F        2.02298620       6.11677603       2.05978938       0.17183197       0.17130360      -0.06245235
F        0.01272213       6.11845119       0.01110671       0.38509572      -0.42482877       0.29471476
F        2.04659103       4.05698621       0.00081560       0.07447972       0.12014251      -0.26687614
F        0.02409897       4.07950246       2.00497682      -0.31658559       0.03084578       0.15244199
Li       4.11029667       4.03482506       0.01284112      -0.14767414       0.03947260       0.16735105
Li       4.13494724       6.11177989       2.05263485      -0.21922537      -0.16678155      -0.09192954
Li       6.05384583       4.10671935       2.02820891       0.02749923      -0.16112332       0.09178555
Li       6.05860459       6.06109959       0.06079810      -0.72771141      -0.64476814       0.65073490
F        6.11378010       6.08061329       2.07878849      -0.03381001       0.13715421      -0.22136967
F        4.08783106       6.17715422       0.00022656       0.16535099      -0.11963214       0.09194239
F        6.09266340       4.09510433       0.00879499       0.04823570       0.11725696      -0.06444110
F        4.06476742       4.09155936       2.03321625       0.09686837      -0.06350136       0.02698913
Li       0.01623654       0.03162771       4.05522951       0.35129574       0.36436620       0.18779749
Li      -0.00307642       2.04387349       6.13749404       0.33353970      -0.22541530      -0.49883926
Li       2.04627529       0.02662575       6.15127355      -0.27117374       0.33429766      -0.45086865
Li       2.04317020       2.01834464       4.18415180      -0.12790647      -0.02245319      -0.29778723
F        2.02072543       2.06072703       6.13269819       0.15316884      -0.05569601       0.21926908
F       -0.04157073       2.05810956       4.08429002      -0.06619485       0.06776399      -0.02518498
F        2.05820746      -0.01629552       4.05900574       0.07849681      -0.09020535       0.18286046
F       -0.02444433       0.02654628       6.12204400       0.54192633       0.43541169      -0.37215021
Li       4.07580715      -0.00923583       4.14207676       0.03706245       0.25536634      -0.13685005
Li       4.07396360       2.07025772       6.09228052       0.10351210      -0.01477510      -0.14710798
Li       6.13484533       0.01524162       6.12883708      -0.87313609       0.84034424      -0.80689728
Li       6.11086000       2.03001165       4.11589157      -0.20380261      -0.00347742      -0.06890891
F        6.09672083       2.00007793       6.11342476       0.07775530      -0.05874277       0.04456030
F        4.07184211       2.06942052       4.10498645      -0.04971562      -0.05533760      -0.08421108
F        6.11891797       0.00141845       4.08339277       0.11373249      -0.09599214       0.17920538
F        4.10674024      -0.02294880       6.14873209      -0.02194694      -0.00580092      -0.00245129
Li       0.04310417       4.10912696       4.03235032       0.13290932      -0.04391290       0.00987226
Li       0.07295940       6.05834273       6.12852189       0.66893419      -0.60637514      -0.87297077
Li       2.00086599       4.11125390       6.08076633       0.11395361      -0.02203744      -0.18541845
Li       2.00527253       6.07111890       4.05016382      -0.05185992      -0.04576358       0.01900045
F        2.02844262       6.13511301       6.09819176      -0.02858964      -0.01518674       0.12819906
F        0.01767564       6.18664177       4.09441218      -0.06646584      -0.21656171       0.10519797
F        2.04289269       4.08057485       4.05896684      -0.01256447      -0.05037974       0.06587012
F        0.02638332       4.09337223       6.12468454      -0.07041814       0.14698483       0.07513098
Li       4.06300040       4.09253921       4.01747505      -0.00597113      -0.06832012       0.20881960
Li       4.09156543       6.10639278       6.10216776       0.11239089      -0.39953066      -0.37228314
Li       6.04287625       4.13546231       5.96497201      -0.17235339       0.10229365      -0.07410588
Li       6.00446995       6.09004034       4.08958028      -0.00366562      -0.31898186       0.17352735
F        6.14639353       6.11655532       6.05925105      -0.56110418      -0.39716448      -0.43584415
F        4.08404764       6.07289087       4.07856120      -0.05903793       0.28906347      -0.09959759
F        6.17231900       4.02613126       4.04784357      -0.05611870       0.10208514       0.01488720
F        4.07516876       4.11256301       6.12079715      -0.02950084      -0.09719516       0.13330990
64
Lattice="28.160000039244697 0.0 0.0 0.0 28.160000039244697 0.0 0.0 0.0 28.160000039244697" Properties=species:S:1:pos:R:3:REF_forces:R:3 config_type=LIF64_ISOLATED REF_energy=-32504.188218255244 pbc="T T T"
Li       0.09946761      -0.01144245       0.08773924       0.67519406       0.81760129       0.74306527
Li      -0.02088071       2.03846033       2.04819892       0.33296866      -0.02689631      -0.03352667
Li       2.13582425       0.01131465       2.03615129      -0.08634227       0.30934613      -0.01078963
Li       2.00641845       2.09500084       0.03707308       0.03292992      -0.19567483       0.22434469
F        1.99323827       2.02815735       1.98064747       0.22158178       0.09972666       0.33086138
F       -0.03831265       2.02599072      -0.02183647       0.03905634      -0.11649411      -0.00136911
F        2.08669834       0.00242777       0.04772841      -0.27178746      -0.13367937      -0.14720954
F       -0.03821900      -0.02659304       2.07069866       0.01334737       0.00145730      -0.21165655
Li       4.13915574       0.04470056       0.00313974       0.05567287       0.32330388       0.44634454
Li       4.12371746       2.05724246       2.05094951      -0.06136992      -0.24249231      -0.08130497
Li       6.16066118      -0.00166293       2.10155334      -0.58432150       0.46007140      -0.29954226
Li       6.08462051       2.03265918       0.00060883      -0.36439448      -0.25602351       0.45675751
F        6.14385087       2.04710344       2.04243129       0.11318845       0.00193373      -0.01164375
F        4.07706499       2.04930146      -0.00584130       0.07833071       0.15801974      -0.18694465
F        6.06214919      -0.00794083      -0.01856812      -0.19549897       0.45930573       0.37704791
F        4.10716435      -0.00086627       2.04099508       0.00939481      -0.14159399       0.20652026
Li       0.01921809       4.07221095      -0.00369212       0.36890780       0.11714357       0.43182577
Li       0.00320250       6.09828850       1.92943781       0.43177872      -0.33346334       0.03138468
Li       2.09401627       4.07125268       2.06064115      -0.29338961      -0.03467415      -0.14458856
Li       2.02411604       6.04756474       0.05901454      -0.10631614      -0.23872230       0.31428779
F        2.02230960       6.11660518       2.06008672       0.19742910       0.14065734      -0.05516765
F        0.01640682       6.12256389       0.01097012       0.37717158      -0.44262107       0.29392440
F        2.04438874       4.05462168      -0.00080418       0.08801452       0.12340601      -0.25822283
F        0.02683421       4.08570008       2.00799765      -0.32695125      -0.00426469       0.13882749
Li       4.10643180       4.04048218       0.01666771      -0.11516125       0.04713063       0.15207895
Li       4.12911344       6.10793981       2.05965782      -0.20145082      -0.14507604      -0.11282489
Li       6.05902158       4.11049918       2.03263288       0.02327157      -0.17430408       0.07354255
Li       6.06004590       6.06113848       0.06332514      -0.73218127      -0.64169438       0.64852555
F        6.11750310       6.08117852       2.07849949      -0.04908827       0.12558990      -0.20391548
F        4.08698319       6.18109887       0.00152143       0.16000798      -0.14285358       0.09916513
F        6.09331519       4.09660393       0.00495536       0.03715630       0.11389884      -0.05600377
F        4.06781580       4.08968451       2.03261222       0.06463316      -0.05662006       0.03885477
Li       0.01694606       0.03681766       4.05085078       0.34053876       0.36122200       0.20093377
Li      -0.00026665       2.03541107       6.14747814       0.32422562      -0.20322256      -0.51284252
Li       2.04509642       0.02417241       6.14784990      -0.27199083       0.33791520      -0.44304298
Li       2.04185298       2.02214406       4.18747147      -0.13505002      -0.03645027      -0.30319400
F        2.01819366       2.06172783       6.13635424       0.17297662      -0.06213868       0.20165882
F       -0.04483909       2.05768378       4.08365505      -0.05514168       0.06528468      -0.03195161
F        2.05614383      -0.01161513       4.05372097       0.08396194      -0.09474875       0.20194961
F       -0.02601128       0.03044164       6.12115375       0.54966098       0.42334679      -0.36542369
Li       4.08032597      -0.01158255       4.14437851       0.03193027       0.26152387      -0.15603665
Li       4.07369914       2.06534321       6.09220314       0.10827404      -0.00935830      -0.13751031
Li       6.13349663       0.01628972       6.13027699      -0.85444057       0.83606978      -0.80796788
Li       6.10806069       2.02945569       4.11726198      -0.18637387      -0.00434311      -0.08750107
F        6.09805647       1.99907910       6.11317370       0.05671365      -0.06871787       0.04766722
F        4.07633674       2.06997997       4.10417045      -0.08573189      -0.05999335      -0.06319977
F        6.12450488      -0.00255694       4.08510675       0.08571955      -0.09418645       0.18202228
F        4.10243128      -0.02284405       6.14916920      -0.01922208      -0.00252791      -0.01287814
Li       0.04062865       4.11160741       4.03475450       0.12573851      -0.04021205       0.00777759
Li       0.06994930       6.05638027       6.13307551       0.68172158      -0.59550066      -0.88390747
Li       2.00446439       4.11279571       6.07443332       0.09033725      -0.01637047      -0.14963306
Li       2.01013371       6.05475805       4.05647794      -0.07783732       0.01821087       0.00098113
F        2.02656751       6.13378586       6.09784581      -0.01137970      -0.03409977       0.12824483
F        0.02182065       6.18922358       4.09285127      -0.07875700      -0.23840760       0.11796144
F        2.04137406       4.07818253       4.06003043       0.01452930      -0.07313580       0.06364226
F        0.02960449       4.09602880       6.12322438      -0.08166518       0.13186108       0.07844744
Li       4.05493952       4.08435013       4.01889432       0.03196241      -0.05046484       0.19252652
Li       4.09870165       6.09652728       6.09843811       0.09783176      -0.35839481      -0.35174388
Li       6.03561933       4.13431155       5.95832242      -0.13667984       0.09771529      -0.04735021
Li       6.00273869       6.08754611       4.09810116       0.01107451      -0.30808449       0.14230516
F        6.14754789       6.11722716       6.05890413      -0.56866631      -0.40447027      -0.43482651
F        4.08432661       6.07023899       4.08006116      -0.06498438       0.26481514      -0.09725223
F        6.17225807       4.02487399       4.05100990      -0.05858053       0.10881500       0.00595982
F        4.07845465       4.11506522       6.12144169      -0.05247853      -0.12339598       0.12153579
64
Lattice="28.160000039244697 0.0 0.0 0.0 28.160000039244697 0.0 0.0 0.0 28.160000039244697" Properties=species:S:1:pos:R:3:REF_forces:R:3 config_type=LIF64_ISOLATED REF_energy=-32504.195857034923 pbc="T T T"
Li       0.08645254      -0.00716284       0.09651170       0.69563664       0.81121544       0.72982177
Li      -0.02280456       2.03607188       2.04654973       0.33104753      -0.01269816      -0.02335693
Li       2.13102048       0.01609244       2.03623296      -0.07004791       0.29652224      -0.01342244
Li       2.01045827       2.08973590       0.03688235       0.02583444      -0.18364053       0.21946628
F        1.98931517       2.02967694       1.97784963       0.23317797       0.08884653       0.34849426
F       -0.03789895       2.02182247      -0.01965827       0.02671119      -0.11878857      -0.00275391
F        2.08975025       0.00012400       0.05169425      -0.29357062      -0.12730689      -0.15386998
F       -0.03895434      -0.02524994       2.07431991       0.01461364      -0.00146142      -0.21320256
Li       4.12863082       0.04401167       0.00299861       0.09700309       0.32267268       0.45775484
Li       4.12249605       2.05722681       2.05422934      -0.04047122      -0.24527887      -0.09880030
Li       6.15923790      -0.00515255       2.11081623      -0.58105492       0.47672135      -0.34737378
Li       6.08641054       2.03280487      -0.00350946      -0.36579753      -0.26963930       0.48486815
F        6.14505214       2.04429552       2.04060835       0.10839462       0.00933722       0.01226673
F        4.07283364       2.05145656      -0.00222973       0.08138004       0.14427360      -0.20865325
F        6.06337067      -0.00702418      -0.01456118      -0.21260941       0.45667137       0.35411650
F        4.10840439      -0.00080939       2.03612992      -0.01128766      -0.14249722       0.24299856
Li       0.02084550       4.07366422      -0.00136266       0.36523549       0.11435444       0.43330390
Li       0.01377259       6.10937548       1.92983942       0.39893160      -0.35622017       0.04298627
Li       2.09127180       4.06509169       2.05363592      -0.28355797      -0.03150064      -0.13064804
Li       2.01957999       6.04726509       0.06679916      -0.09006549      -0.24400206       0.28223745
F        2.01988075       6.12020911       2.05749141       0.20613331       0.13762035      -0.04698203
F        0.01823401       6.12121608       0.00963039       0.37650540      -0.43539652       0.30368225
F        2.04332774       4.05374173      -0.00101388       0.07793734       0.11946914      -0.24829015
F        0.02452833       4.08381588       2.01284088      -0.31186273       0.00831289       0.11432539
Li       4.11008787       4.03359409       0.01589726      -0.12109896       0.06013836       0.16317352
Li       4.12922684       6.11637587       2.06074192      -0.19677372      -0.17164788      -0.12026952
Li       6.05873430       4.11187333       2.03633620       0.02921930      -0.18811399       0.04958990
Li       6.04946293       6.06697413       0.06187789      -0.71468389      -0.66311759       0.65303346
F        6.11794060       6.08081155       2.07407520      -0.06305322       0.14231416      -0.17964375
F        4.08333772       6.17774839       0.00276803       0.16382452      -0.12150931       0.09840872
F        6.09346118       4.09464942       0.01071035       0.03466464       0.12073643      -0.08557043
F        4.07158682       4.08691447       2.03058610       0.03193824      -0.03748694       0.06191242
Li       0.02691499       0.03867357       4.05715343       0.30960042       0.35484078       0.18563571
Li       0.00225770       2.03503389       6.15143387       0.30455154      -0.19361641      -0.52278575
Li       2.03784290       0.03595003       6.15033655      -0.24408382       0.30272580      -0.44327953
Li       2.04012327       2.02326158       4.19254129      -0.12567269      -0.02767998      -0.32872917
F        2.02358442       2.06118998       6.13676472       0.15073966      -0.07102698       0.21038206
F       -0.04500830       2.05874595       4.08156360      -0.03626670       0.05473339      -0.00554124
F        2.05872088      -0.01190245       4.05507839       0.07013609      -0.08094501       0.20839845
F       -0.03242249       0.03095701       6.12011576       0.57584098       0.44159442      -0.35972690
Li       4.08584526      -0.01387059       4.14135879       0.01380142       0.26144108      -0.14461581
Li       4.07323424       2.06407884       6.08873483       0.11456759      -0.00564049      -0.13479034
Li       6.13957356       0.02166101       6.13690445      -0.87433423       0.82586687      -0.81143322
Li       6.10711014       2.02071141       4.11898325      -0.18536445       0.02313504      -0.11515354
F        6.09507292       2.00159149       6.10851864       0.07952962      -0.07168493       0.06812369
F        4.07660760       2.06870480       4.10485521      -0.09497938      -0.05999772      -0.06882586
F        6.12311339       0.00226721       4.08093404       0.09596180      -0.11280021       0.20871470
F        4.10698948      -0.02350464       6.15114276      -0.01693149       0.00828821      -0.01567062
Li       0.04063575       4.11009170       4.03580444       0.12487437      -0.03674929      -0.01246137
Li       0.07286018       6.04799998       6.13155545       0.68179511      -0.57223783      -0.88846655
Li       2.00845346       4.11391069       6.07688525       0.10619530      -0.00718855      -0.16144651
Li       2.01697708       6.04942196       4.05083828      -0.09439677       0.03012382       0.01640518
F        2.03224116       6.12967377       6.09635710      -0.04140016      -0.03002046       0.13346982
F        0.01845716       6.19241824       4.09007345      -0.05407621      -0.25065016       0.13306050
F        2.04412181       4.08026052       4.05853675       0.00865665      -0.09116515       0.06121565
F        0.03585780       4.09066671       6.12156720      -0.08959883       0.13638622       0.08832074
Li       4.05724611       4.08390862       4.01432773       0.03034236      -0.04687481       0.20232114
Li       4.09469139       6.10029245       6.09187351       0.11083460      -0.36390366      -0.33815689
Li       6.03917172       4.12649971       5.95862663      -0.15921891       0.12193662      -0.05394457
Li       6.00477999       6.08221418       4.09887129      -0.00154035      -0.29798006       0.14755741
F        6.14187843       6.11901511       6.05823394      -0.54485404      -0.40872698      -0.44131932
F        4.07914246       6.07482105       4.08178302      -0.03931448       0.25795210      -0.13750054
F        6.17114695       4.02452672       4.04890945      -0.05455958       0.11391118       0.01513197
F        4.08153320       4.12089901       6.11830305      -0.06308819      -0.16294675       0.12550763
64
Lattice="28.160000039244697 0.0 0.0 0.0 28.160000039244697 0.0 0.0 0.0 28.160000039244697" Properties=species:S:1:pos:R:3:REF_forces:R:3 config_type=LIF64_ISOLATED REF_energy=-32504.178369503024 pbc="T T T"
Li       0.09041314      -0.01561471       0.10211496       0.68122895       0.81857111       0.71084240
Li      -0.02660674       2.03117437       2.04868464       0.33857341       0.00834760      -0.02035774
Li       2.12341099       0.02798280       2.02811417      -0.02211894       0.28030887       0.02268433
Li       2.00454886       2.08323148       0.03413263       0.04762429      -0.15173031       0.23173199
F        1.99114386       2.02889311       1.97757649       0.20180306       0.09017193       0.35057763
F       -0.03538915       2.01719333      -0.02133710       0.01815430      -0.11807046       0.00249371
F        2.09178556      -0.00119579       0.05340240      -0.31164573      -0.13940573      -0.16604956
F       -0.04211876      -0.02386404       2.07512514       0.01918223      -0.00895438      -0.21716129
Li       4.13181781       0.03599246      -0.00304060       0.09115512       0.34819884       0.48350649
Li       4.13710005       2.06282509       2.05001209      -0.08080154      -0.25285643      -0.09712239
Li       6.16022141      -0.00872496       2.11705693      -0.59403050       0.47878980      -0.36694244
Li       6.09231126       2.02504158      -0.00371636      -0.38359111      -0.25968785       0.48053790
F        6.14818228       2.04190983       2.03914820       0.12364152       0.01573721       0.02584704
F        4.07245381       2.05010933      -0.00197505       0.09733837       0.14004079      -0.21628711
F        6.06331000      -0.00597101      -0.01452481      -0.19577716       0.44338828       0.34003045
F        4.11071278      -0.00151776       2.03387032      -0.00699520      -0.14294614       0.25368432
Li       0.01390781       4.07217845      -0.00288217       0.38658413       0.11282541       0.43417962
Li       0.01914091       6.10982771       1.92191140       0.38139976      -0.35146620       0.06146325
Li       2.08110647       4.07055016       2.06161765      -0.23656694      -0.05652596      -0.15324855
Li       2.02379430       6.04991974       0.06894312      -0.08323201      -0.25990228       0.27411045
F        2.02684666       6.11888211       2.05828404       0.15909421       0.13723032      -0.05015014
F        0.01077907       6.12452468       0.00810892       0.40051977      -0.44899792       0.31548824
F        2.04476959       4.05260207      -0.00477509       0.05128682       0.13064855      -0.23664536
F        0.02102941       4.08105416       2.01551614      -0.29694905       0.02745347       0.09387406
Li       4.10784333       4.03177438       0.01125810      -0.12642577       0.05723353       0.18235138
Li       4.13118220       6.11711836       2.06480240      -0.20677352      -0.18270336      -0.13345851
Li       6.06082959       4.11385108       2.03310640       0.01097321      -0.18492762       0.05238031
Li       6.04942431       6.06326920       0.05914509      -0.72376323      -0.65724030       0.65453165
F        6.11307005       6.08011644       2.06833424      -0.02738970       0.14976187      -0.15932509
F        4.08295748       6.17710090       0.00651603       0.16006403      -0.11481261       0.07453114
F        6.09426935       4.09480284       0.00830260       0.03950551       0.11137170      -0.08395886
F        4.07467239       4.08901724       2.03403345       0.02485100      -0.05410809       0.05022033
Li       0.02624007       0.03304990       4.05541847       0.31990951       0.36581887       0.20282019
Li       0.00504486       2.03591486       6.15090344       0.29817546      -0.19534239      -0.51936387
Li       2.03931557       0.04177295       6.15165068      -0.24846447       0.29235268      -0.44384877
Li       2.03274944       2.01798084       4.18961328      -0.10638016      -0.01256164      -0.32195945
F        2.02495871       2.06383260       6.13880104       0.13789598      -0.07912981       0.19915328
F       -0.04338880       2.06091700       4.08189308      -0.03860383       0.03614920      -0.00317994
F        2.05633326      -0.01236254       4.05659100       0.06806867      -0.07064903       0.19664723
F       -0.02960364       0.03321422       6.12648078       0.57003440       0.44162476      -0.37030776
Li       4.09547210      -0.01324251       4.14085986      -0.03059227       0.25906564      -0.15937009
Li       4.08086939       2.05625232       6.08011694       0.09087153       0.01848546      -0.11112128
Li       6.14195996       0.01100872       6.13717060      -0.88493231       0.84334163      -0.80687105
Li       6.11260434       2.01952483       4.11970756      -0.20158220       0.03486056      -0.11591536
F        6.09191781       2.00032373       6.10823034       0.10074713      -0.09130579       0.05819512
F        4.07865040       2.07392194       4.10551853      -0.08529506      -0.09302817      -0.07731461
F        6.12010262       0.00034651       4.08073565       0.11644989      -0.11660698       0.21845841
F        4.10542567      -0.02578312       6.14814028       0.00269992       0.00727828      -0.01363585
Li       0.03791374       4.12107315       4.04072508       0.12351991      -0.05659075      -0.01961623
Li       0.07191441       6.04382690       6.12651714       0.67490841      -0.55750310      -0.87330064
Li       2.00882839       4.11194697       6.08074713       0.11797584      -0.01603674      -0.16150513
Li       2.02105438       6.04698878       4.05931615      -0.09202724       0.03813357      -0.00144085
F        2.03440354       6.12508369       6.09760548      -0.05400602      -0.01394618       0.12547986
F        0.01620012       6.19157540       4.08960361      -0.03737536      -0.25019456       0.13678603
F        2.04586610       4.08247821       4.06300292      -0.01132905      -0.08950293       0.04828789
F        0.02898784       4.09491423       6.11962657      -0.07440438       0.12458203       0.08870743
Li       4.05697078       4.08090233       4.01845757       0.02808545      -0.03610163       0.19044264
Li       4.09115242       6.10381352       6.08908152       0.13042486      -0.37526433      -0.32765033
Li       6.03826037       4.12237401       5.94998892      -0.17320956       0.14921449      -0.01410070
Li       6.00536997       6.09033507       4.09297832      -0.01162216      -0.30546737       0.17246060
F        6.13915535       6.12667285       6.05738448      -0.54203534      -0.41859642      -0.45719768
F        4.08114704       6.08078451       4.07911302      -0.04861905       0.24902702      -0.11992345
F        6.16897019       4.02581888       4.05307933      -0.03251468       0.10569368      -0.02071666
F        4.07899708       4.12066838       6.12213593      -0.04369384      -0.15354422       0.10654163
64
Lattice="28.160000039244697 0.0 0.0 0.0 28.160000039244697 0.0 0.0 0.0 28.160000039244697" Properties=species:S:1:pos:R:3:REF_forces:R:3 config_type=LIF64_ISOLATED REF_energy=-32504.177137235507 pbc="T T T"
Li       0.09393130      -0.01810184       0.10607478       0.68044759       0.82020865       0.68855300
Li      -0.03501371       2.02414781       2.04481834       0.35729207       0.03428026      -0.01583774
Li       2.11934004       0.02338995       2.03751263      -0.01085751       0.29359581       0.00002083
Li       2.00278566       2.07574141       0.03562014       0.06695744      -0.12073540       0.21654962
F        1.99509212       2.02648109       1.97689663       0.17775039       0.08230101       0.38279484
F       -0.03365731       2.01993552      -0.01948042      -0.00160565      -0.13720126       0.01002087
F        2.09258375       0.00353261       0.05169560      -0.31491360      -0.16050343      -0.14375681
F       -0.04139880      -0.02269201       2.07314856       0.01880582      -0.01454113      -0.20445412
Li       4.13748852       0.03368748       0.00322721       0.07904497       0.36894508       0.46763584
Li       4.12988762       2.05720964       2.04853556      -0.05372166      -0.21683476      -0.10728905
Li       6.16168849      -0.00880631       2.12462484      -0.58427831       0.49491808      -0.37988486
Li       6.09505555       2.02445655      -0.01012877      -0.39904035      -0.24548199       0.49792755
F        6.15074156       2.04547195       2.03708977       0.12266039      -0.01048727       0.04060183
F        4.07204073       2.05593326      -0.00543550       0.10358795       0.08737148      -0.20840745
F        6.06523343      -0.00351529      -0.01266869      -0.19979580       0.42989642       0.34071282
F        4.10937325      -0.00093043       2.03886983      -0.00326530      -0.15850697       0.24563240
Li       0.00822905       4.07006554       0.00059115       0.40887816       0.11881171       0.42512574
Li       0.01649548       6.11316642       1.92240175       0.38837670      -0.35814619       0.05114721
Li       2.08279758       4.06745994       2.05963581      -0.23205492      -0.05305060      -0.16827896
Li       2.02653741       6.04434770       0.07281540      -0.08470525      -0.25531440       0.25648785
F        2.02784206       6.11682901       2.05735676       0.15472719       0.14009453      -0.03241801
F        0.00983985       6.12341294       0.00618405       0.39468310      -0.45217760       0.33561278
F        2.04581008       4.05012709      -0.00455003       0.03505802       0.14078950      -0.23005871
F        0.01929720       4.07826763       2.01681127      -0.29663100       0.03005928       0.09958345
Li       4.11308978       4.03545914       0.00598270      -0.14223626       0.03839454       0.18991094
Li       4.13503398       6.11179293       2.06603093      -0.21334166      -0.17694383      -0.15681030
Li       6.06256986       4.11420343       2.03634385      -0.00371679      -0.19964462       0.03827164
Li       6.05065302       6.06620011       0.05402054      -0.74019026      -0.66774506       0.65997467
F        6.10661211       6.07985569       2.06396633      -0.00478328       0.15504678      -0.14110034
F        4.08327862       6.18224756       0.00218009       0.16298403      -0.12298383       0.07566320
F        6.08894102       4.09034136       0.00490688       0.07318594       0.14116153      -0.09427618
F        4.07527089       4.08984506       2.02614496       0.01662372      -0.04389876       0.10607703
Li       0.02352143       0.03348661       4.05511650       0.32259374       0.36657478       0.22419994
Li       0.00666760       2.03635269       6.15174867       0.29781062      -0.19438748      -0.51639193
Li       2.03853619       0.04853382       6.14850302      -0.25238000       0.27619356      -0.43496921
Li       2.03020919       2.02004575       4.18416909      -0.10082710      -0.01529755      -0.30398898
F        2.02546948       2.06453579       6.14211708       0.14405171      -0.09152202       0.16471104
F       -0.04669798       2.06088253       4.08621538      -0.02753909       0.03168036      -0.03165054
F        2.05353176      -0.01477359       4.06226626       0.07559866      -0.06163937       0.17031784
F       -0.02638411       0.03472492       6.12348010       0.55515902       0.43501934      -0.36257208
Li       4.10151385      -0.01599617       4.13883190      -0.03997114       0.26377127      -0.15114410
Li       4.08002326       2.04525656       6.06954089       0.08681073       0.03897227      -0.08496673
Li       6.14467328       0.01081169       6.13844918      -0.88926899       0.84468298      -0.80379293
Li       6.11797213       2.02472798       4.12061511      -0.21166273       0.04017169      -0.12844666
F        6.08856913       2.00436327       6.10890514       0.10732222      -0.10265104       0.05932435
F        4.08173360       2.07296283       4.10010653      -0.10570859      -0.09423684      -0.05763256
F        6.12192870      -0.00160536       4.08339850       0.11990468      -0.11264646       0.21845301
F        4.10820180      -0.02620131       6.14953449       0.00469329       0.01254236      -0.02883107
Li       0.03939493       4.12148156       4.03872287       0.11871066      -0.05944596      -0.02289002
Li       0.06665364       6.03961974       6.12324221       0.69671085      -0.54960107      -0.86456043
Li       2.00733736       4.11089205       6.07586872       0.13348833      -0.01035692      -0.13438642
Li       2.02533018       6.04961778       4.05703574      -0.10374684       0.03790912       0.00880011
F        2.03903696       6.12465898       6.10023826      -0.08501790      -0.00994503       0.10259396
F        0.01331519       6.19436685       4.08864093      -0.02751337      -0.26196302       0.14208430
F        2.04782604       4.08477323       4.06441501      -0.02145714      -0.10021132       0.02945713
F        0.03340846       4.09087185       6.12078535      -0.09328708       0.14200331       0.07876986
Li       4.05485999       4.08808532       4.02360105       0.04203394      -0.06720607       0.16908680
Li       4.09245761       6.10178470       6.08739826       0.11536051      -0.36764076      -0.30420778
Li       6.02971749       4.11689007       5.95948623      -0.16349928       0.15300352      -0.04313283
Li       5.99952078       6.09803287       4.09844506       0.01473705      -0.32389061       0.16678438
F        6.13372665       6.12723549       6.05675025      -0.53560193      -0.41442352      -0.44251539
F        4.08413070       6.08007726       4.08391027      -0.06948226       0.25414121      -0.14874269
F        6.17215989       4.02301711       4.05539397      -0.04540440       0.12541456      -0.00988332
F        4.07237408       4.12194671       6.12267843      -0.01854357      -0.16669156       0.09439188
64
Lattice="28.160000039244697 0.0 0.0 0.0 28.160000039244697 0.0 0.0 0.0 28.160000039244697" Properties=species:S:1:pos:R:3:REF_forces:R:3 config_type=LIF64_ISOLATED REF_energy=-32504.203614048063 pbc="T T T"
Li       0.09724932      -0.01238353       0.10916842       0.67215501       0.80034430       0.67793871
Li      -0.03751913       2.02206304       2.04313257       0.35534317       0.04150095      -0.00750634
Li       2.12016325       0.02295058       2.03632164      -0.01378626       0.28649880       0.00506842
Li       2.00163861       2.08143558       0.03881783       0.07146356      -0.14764740       0.20350873
F        1.99401082       2.02572276       1.97617223       0.18668240       0.08282989       0.38559143
F       -0.03370414       2.01966329      -0.01891103      -0.00083921      -0.13490115       0.00272743
F        2.09227212       0.00261465       0.05548888      -0.31215378      -0.15309454      -0.14845987
F       -0.04311981      -0.02630153       2.07207024       0.02530505      -0.00073482      -0.19290807
Li       4.13809394       0.03927904       0.00206793       0.07564803       0.35663643       0.45925687
Li       4.12640974       2.05734961       2.04736237      -0.04163979      -0.21325501      -0.10791614
Li       6.15706605      -0.01038415       2.12353650      -0.57205220       0.49607713      -0.36917493
Li       6.09594361       2.01991617      -0.00464644      -0.39427250      -0.23399250       0.48284212
F        6.15112263       2.05141707       2.03095880       0.11243614      -0.04105023       0.06251149
F        4.07286813       2.05223799      -0.00393640       0.08500324       0.10106467      -0.20817939
F        6.06586124       0.00187667      -0.01840288      -0.20156497       0.41917775       0.35216529
F        4.11134367      -0.00566658       2.03950114      -0.00335760      -0.13719484       0.24814179
Li       0.00757499       4.06856844      -0.01034814       0.39946664       0.12493427       0.45116484
Li       0.02804988       6.11099590       1.92078249       0.35077406      -0.35818295       0.06620642
Li       2.08230541       4.06137247       2.05244325      -0.24244654      -0.04674677      -0.13283476
Li       2.02896146       6.04369966       0.08323641      -0.08161530      -0.24140550       0.22351448
F        2.02757771       6.11709156       2.05872778       0.16466964       0.13050483      -0.03160889
F        0.00938715       6.12541027       0.00887534       0.41077512      -0.46443379       0.32478535
F        2.04567057       4.04562750      -0.00636149       0.02998549       0.15997738      -0.22464268
F        0.01604309       4.07477756       2.01612426      -0.27823759       0.03178809       0.08846266
Li       4.11091851       4.03747604       0.00232148      -0.12052612       0.03517449       0.19436203
Li       4.12865225       6.11300343       2.07288967      -0.19025186      -0.18343998      -0.17711687
Li       6.05999146       4.10712163       2.03220378       0.00260684      -0.18272753       0.04080264
Li       6.05846067       6.06796697       0.05574513      -0.76754089      -0.68302307       0.67250803
F        6.10166761       6.07196051       2.06829550       0.00722249       0.18929927      -0.15805137
F        4.07866406       6.18409326       0.00285411       0.17214358      -0.13015464       0.08036523
F        6.08755987       4.08915972       0.00759128       0.07585886       0.15715431      -0.11495094
F        4.07523836       4.08691891       2.02226582      -0.01671500      -0.04131069       0.11767579
Li       0.02816775       0.02897712       4.05614129       0.31990283       0.37631309       0.22181653
Li       0.00248538       2.03928341       6.15775024       0.30837966      -0.19686988      -0.52974855
Li       2.03438866       0.05740259       6.15230989      -0.24089540       0.25438855      -0.44257041
Li       2.02891694       2.02291829       4.18890541      -0.09995009      -0.01638641      -0.31044888
F        2.02880648       2.06253645       6.13991933       0.12414957      -0.07173275       0.19404553
F       -0.04636783       2.06222565       4.08700700      -0.03569025       0.02622705      -0.02746427
F        2.05254628      -0.01097860       4.06571156       0.07577812      -0.06320106       0.14580649
F       -0.02227954       0.03630964       6.12524596       0.54359626       0.43908091      -0.35282092
Li       4.10079193      -0.00753705       4.13389295      -0.03910725       0.24938826      -0.12816384
Li       4.07666086       2.04413413       6.07695336       0.10110323       0.04388050      -0.10452126
Li       6.13994936       0.01623453       6.13369327      -0.87936947       0.82960989      -0.79480563
Li       6.11802321       2.03058674       4.12318421      -0.21263486       0.02972787      -0.12917737
F        6.09036052       2.00323872       6.11196835       0.10723351      -0.08264348       0.05227361
F        4.08343962       2.07466959       4.10498173      -0.10766083      -0.09982051      -0.09238436
F        6.12270256      -0.00023901       4.08448496       0.11654476      -0.09884015       0.19817498
F        4.10951295      -0.02340231       6.14787874      -0.00105030       0.01699782      -0.01900919
Li       0.03126571       4.11343287       4.03976499       0.14102064      -0.04448008      -0.03098488
Li       0.06712282       6.04098149       6.11795829       0.69472750      -0.54934859      -0.85868006
Li       2.01074051       4.11262004       6.07422225       0.13186057      -0.00456165      -0.13704803
Li       2.02241130       6.05182067       4.06377861      -0.10727054       0.01925525       0.00215690
F        2.04004100       6.12399948       6.09808970      -0.08631785      -0.00053428       0.10067412
F        0.01400565       6.19284932       4.08640473      -0.02764553      -0.25447622       0.14991717
F        2.04748397       4.08436139       4.06698357      -0.01933547      -0.10094511       0.00515558
F        0.03282959       4.09429928       6.12060709      -0.09486985       0.12033380       0.08301604
Li       4.05377096       4.08954590       4.01469713       0.04515269      -0.07757404       0.19551568
Li       4.10248786       6.09936694       6.08221070       0.09762633      -0.36918830      -0.28734880
Li       6.03522325       4.11658563       5.95835844      -0.18002350       0.14660713      -0.04934564
Li       5.99703213       6.10043618       4.09910455       0.03189376      -0.33934551       0.15062319
F        6.13575171       6.12423690       6.05741622      -0.53383224      -0.40669118      -0.44657388
F        4.08558943       6.08042576       4.08332678      -0.08186598       0.26100322      -0.14733964
F        6.17171615       4.02425211       4.05095411      -0.04298910       0.11204405       0.01746062
F        4.07266061       4.12312363       6.11999505      -0.00900040      -0.16788687       0.10554944
64
Lattice="28.160000039244697 0.0 0.0 0.0 28.160000039244697 0.0 0.0 0.0 28.160000039244697" Properties=species:S:1:pos:R:3:REF_forces:R:3 config_type=LIF64_ISOLATED REF_energy=-32504.23765603351 pbc="T T T"
Li       0.10305191      -0.01432050       0.10239388       0.66452681       0.81194718       0.69183012
Li      -0.03734058       2.02459041       2.03885098       0.36047766       0.02605093      -0.00813883
Li       2.11884036       0.02399499       2.03613544      -0.03640733       0.28644146       0.00607834
Li       2.01207153       2.08309438       0.03870753       0.03859894      -0.14934818       0.20244198
F        1.98933140       2.02827329       1.97502723       0.21358745       0.07166436       0.39081437
F       -0.03070559       2.02068892      -0.01831416      -0.01655430      -0.13023872      -0.00762898
F        2.08779101       0.00624832       0.05299333      -0.27257602      -0.16136269      -0.15422479
F       -0.03766332      -0.02724079       2.06801002       0.01712483      -0.00349773      -0.18743445
Li       4.13411081       0.04281712       0.00282057       0.08351946       0.35075478       0.45830300
Li       4.12861916       2.05716606       2.04868214      -0.04923663      -0.19944304      -0.10496323
Li       6.16174545      -0.00630831       2.12188316      -0.58259578       0.49061739      -0.35719668
Li       6.09340635       2.01870928      -0.00622780      -0.38940154      -0.23537395       0.47627218
F        6.14947728       2.04662590       2.02517455       0.12724852      -0.01688598       0.08623120
F        4.07170327       2.05594289      -0.00629382       0.08716734       0.08642198      -0.20389517
F        6.06663858       0.00740452      -0.01706477      -0.21226873       0.40791966       0.34747765
F        4.10793870      -0.00514223       2.04226250       0.00057747      -0.12943499       0.22511422
Li       0.00762335       4.06716792      -0.01110582       0.40163408       0.11641467       0.44788309
Li       0.03263364       6.10149707       1.92360473       0.32755314      -0.34262341       0.06325942
Li       2.08102349       4.05785765       2.05127979      -0.22956892      -0.05332057      -0.12400045
Li       2.02678511       6.04720600       0.08903892      -0.08361690      -0.25238463       0.20777599
F        2.03126890       6.11506209       2.06073677       0.15812516       0.14957341      -0.04506552
F        0.00899184       6.12511592       0.01347684       0.42044530      -0.45842641       0.31846378
F        2.04281899       4.04169403      -0.00538901       0.04788088       0.19632327      -0.22803217
F        0.01474155       4.07734137       2.01425498      -0.28166847       0.02800446       0.10228954
Li       4.11225663       4.04187516       0.00315556      -0.13476309       0.02599180       0.20279088
Li       4.12447801       6.12620028       2.07437652      -0.17570842      -0.22340007      -0.16860343
Li       6.06990552       4.10789234       2.02841264      -0.03888305      -0.18657493       0.05305626
Li       6.05691494       6.05875243       0.05787315      -0.75850783      -0.65479544       0.66210971
F        6.10466355       6.06948117       2.07149443       0.00064586       0.18804586      -0.17316303
F        4.07638247       6.18990168       0.00475434       0.18186235      -0.14509326       0.08876374
F        6.08995949       4.08839211       0.00288465       0.06834069       0.16604287      -0.09858227
F        4.07420272       4.08539809       2.02350726       0.00854378      -0.03107898       0.10671364
Li       0.03012423       0.03035250       4.05669666       0.32085028       0.37024683       0.21534429
Li       0.00043458       2.03503153       6.16395073       0.30726174      -0.19256020      -0.54872844
Li       2.04120690       0.07032534       6.15410850      -0.24256559       0.21444183      -0.44280644
Li       2.02819516       2.01933686       4.18936526      -0.11381117      -0.00571685      -0.32430044
F        2.03049703       2.06214208       6.14050603       0.12199987      -0.06141080       0.19927181
F       -0.04334718       2.05836709       4.08909820      -0.04479710       0.04582734      -0.03252600
F        2.05027447      -0.01212607       4.06406978       0.09783433      -0.05072118       0.14954513
F       -0.01856327       0.03548985       6.12036407       0.53366563       0.44664587      -0.32830879
Li       4.09643393      -0.00399668       4.12658955      -0.02777023       0.23810112      -0.11019054
Li       4.07865835       2.05074400       6.07390018       0.10326065       0.01907373      -0.09586615
Li       6.13194736       0.01666970       6.13535898      -0.87662225       0.81780852      -0.79498278
Li       6.12298532       2.03413719       4.12692878      -0.22734697       0.00420812      -0.13081259
F        6.09174820       1.99776487       6.11149205       0.10624647      -0.04159788       0.05223325
F        4.08048888       2.07368211       4.10492369      -0.09531079      -0.08713366      -0.09171305
F        6.11665666       0.00104030       4.08986575       0.13350350      -0.09518455       0.16224638
F        4.11137010      -0.02162692       6.15111112      -0.02167594       0.02484457      -0.02176336
Li       0.03172765       4.11703417       4.04000278       0.14846784      -0.05870626      -0.02712900
Li       0.06426984       6.03591013       6.11662658       0.71259667      -0.53885951      -0.84909988
Li       2.01079740       4.10410326       6.07305765       0.11402611       0.02987596      -0.14355292
Li       2.02273098       6.05859592       4.05296360      -0.10433871      -0.00614519       0.04923200
F        2.03858571       6.12373723       6.10034159      -0.07433599      -0.01226776       0.10082375
F        0.01846126       6.19174046       4.08699580      -0.04328864      -0.25188481       0.13712130
F        2.04269585       4.08555287       4.06461866       0.00118991      -0.10714301       0.02113704
F        0.03146552       4.09481697       6.12439455      -0.09629707       0.10124207       0.07775273
Li       4.05650598       4.08986622       4.02036050       0.02253495      -0.06841808       0.15928447
Li       4.10104587       6.09387824       6.08819920       0.08264965      -0.35112322      -0.30679123
Li       6.03480417       4.11590065       5.95763260      -0.16853967       0.15040336      -0.04316779
Li       6.00072402       6.09759686       4.09853391       0.01251587      -0.33283959       0.15020770
F        6.13777711       6.11996195       6.05244025      -0.53314189      -0.41108134      -0.42613669
F        4.08324255       6.08322756       4.08576633      -0.06373610       0.25541904      -0.15414663
F        6.17173122       4.02485889       4.05106890      -0.03686885       0.09058356       0.01513994
F        4.07138697       4.11868215       6.11910623       0.00574102      -0.16485836       0.10594256
64
Lattice="28.160000039244697 0.0 0.0 0.0 28.160000039244697 0.0 0.0 0.0 28.160000039244697" Properties=species:S:1:pos:R:3:REF_forces:R:3 config_type=LIF64_ISOLATED REF_energy=-32504.246910897276 pbc="T T T"
Li       0.10021311      -0.02018956       0.10632564       0.67443018       0.82719125       0.69430275
Li      -0.03308787       2.03014291       2.03840589       0.33953397       0.02427481      -0.00778067
Li       2.12672023       0.01902815       2.03949971      -0.05986222       0.29355339      -0.01451953
Li       2.01796718       2.08459385       0.03744365       0.00854018      -0.16690059       0.20258673
F        1.98704595       2.03037719       1.97247432       0.24418487       0.05539699       0.39698476
F       -0.02896133       2.02207489      -0.01643412      -0.00898421      -0.12409661      -0.03073394
F        2.08995336       0.00469815       0.05267950      -0.27627198      -0.15722784      -0.14814362
F       -0.04131681      -0.02313667       2.06653752       0.02661606      -0.02155639      -0.17162782
Li       4.13699505       0.04582406       0.00390560       0.08113964       0.32807533       0.44561049
Li       4.12313498       2.05293301       2.03860945      -0.03692387      -0.19490299      -0.05674502
Li       6.16202725      -0.00687865       2.11929104      -0.58201882       0.48505147      -0.36779194
Li       6.09845158       2.02666699       0.00177587      -0.38402537      -0.25488734       0.45361510
F        6.15400704       2.04718577       2.02253002       0.11498565      -0.02331322       0.08284274
F        4.07141668       2.05330420      -0.00075876       0.08295022       0.10934979      -0.20451892
F        6.06925247       0.00682119      -0.01725964      -0.21262895       0.41810457       0.35819658
F        4.10681384      -0.01037525       2.03607671       0.01393589      -0.12150236       0.24596895
Li       0.01035637       4.05997557      -0.01910134       0.39197085       0.12729480       0.47850235
Li       0.02900299       6.10388385       1.92274749       0.34397298      -0.36473078       0.06984119
Li       2.09370426       4.05293187       2.04857700      -0.28741051      -0.02314713      -0.08606176
Li       2.02416417       6.04234399       0.08885391      -0.08628931      -0.22954166       0.21871320
F        2.03040346       6.11534692       2.06321508       0.16693967       0.14981998      -0.06450049
F        0.01309339       6.12369851       0.01340094       0.40779882      -0.45479884       0.30685962
F        2.04356984       4.04886877      -0.00447349       0.07219786       0.14987860      -0.23572439
F        0.01412178       4.07391489       2.01645577      -0.27968152       0.03642122       0.08157879
Li       4.10869718       4.03944203       0.01226224      -0.12804891       0.04542831       0.17112003
Li       4.12013836       6.12220623       2.07175263      -0.16814449      -0.19807624      -0.14406534
Li       6.06438720       4.11322619       2.01618092      -0.02913523      -0.18767768       0.11034609
Li       6.05864706       6.05598071       0.06027502      -0.76555599      -0.63024680       0.65468257
F        6.10193005       6.07146892       2.07215541       0.01871686       0.17161342      -0.19359301
F        4.08002070       6.19185712       0.01030478       0.17442312      -0.16180749       0.08258666
F        6.08806211       4.08683920      -0.00264045       0.06489130       0.16244564      -0.07440850
F        4.07245238       4.08376206       2.02710000       0.02221279      -0.04354035       0.06772826
Li       0.02675349       0.02927827       4.06125337       0.31263946       0.38397009       0.19681486
Li       0.00704964       2.03054535       6.16094687       0.29091312      -0.16476760      -0.54826358
Li       2.03418298       0.06555866       6.15089177      -0.23136432       0.24030507      -0.43813912
Li       2.01993519       2.01203223       4.18082801      -0.09435486       0.02529400      -0.28949439
F        2.02528660       2.06027130       6.13959174       0.14171252      -0.06191191       0.20029125
F       -0.04556647       2.05926862       4.09326559      -0.03287901       0.02237837      -0.05164009
F        2.05080182      -0.00872933       4.06582554       0.09443893      -0.07938152       0.13025080
F       -0.01642677       0.03636025       6.11583412       0.52658944       0.41435950      -0.32077932
Li       4.10049935      -0.01087699       4.13304534      -0.04571910       0.27104750      -0.11521062
Li       4.08271670       2.04827796       6.07385004       0.09283996       0.02315973      -0.10333675
Li       6.12786704       0.01341728       6.12963210      -0.86801163       0.84192496      -0.77268361
Li       6.12531225       2.02949441       4.11541914      -0.24363774       0.04537354      -0.09521026
F        6.08900158       2.00415562       6.11682999       0.11279661      -0.07096399       0.02715316
F        4.08071112       2.06868964       4.10388722      -0.09520152      -0.07932727      -0.10375687
F        6.11268842       0.00310015       4.09096990       0.14547250      -0.11141773       0.15247259
F        4.10974051      -0.01642810       6.15063133      -0.01209344      -0.00786578      -0.02163918
Li       0.03523134       4.11876638       4.03877212       0.14871055      -0.05525815      -0.02300803
Li       0.06296772       6.02918924       6.11713914       0.71716166      -0.53719447      -0.86052380
Li       2.01522817       4.09921733       6.07650948       0.09312330       0.03728665      -0.17107092
Li       2.02538090       6.06622468       4.05140435      -0.11076210      -0.03690793       0.05519541
F        2.04231024       6.12179459       6.09387072      -0.08035880      -0.00159640       0.13458825
F        0.01967709       6.19040994       4.08897888      -0.05783208      -0.23459568       0.13082339
F        2.03821771       4.08787673       4.06650853       0.03718946      -0.13256814       0.00810875
F        0.02877463       4.09272987       6.12205347      -0.08544753       0.10828484       0.09927338
Li       4.05891067       4.08873842       4.02940109       0.01805531      -0.06218367       0.14874783
Li       4.09651279       6.09375500       6.09280442       0.08257124      -0.34766071      -0.33087321
Li       6.03538358       4.12135581       5.96161575      -0.16797043       0.13256377      -0.06192373
Li       6.00857317       6.10173550       4.10345395      -0.02732286      -0.34487852       0.13382669
F        6.14064038       6.12294093       6.05178387      -0.52951870      -0.41092451      -0.41346964
F        4.08378391       6.08181515       4.08533522      -0.05048258       0.26262970      -0.14786697
F        6.16944786       4.02672578       4.05011620      -0.02889946       0.07984381       0.01700219
F        4.07181248       4.12120052       6.12062653       0.00318328      -0.17496228       0.11248962
64
Lattice="28.160000039244697 0.0 0.0 0.0 28.160000039244697 0.0 0.0 0.0 28.160000039244697" Properties=species:S:1:pos:R:3:REF_forces:R:3 config_type=LIF64_ISOLATED REF_energy=-32504.238808571674 pbc="T T T"
Li       0.09746558      -0.02185568       0.10601753       0.68614824       0.82764788       0.70484068
Li      -0.03907319       2.03589728       2.04391469       0.35561493      -0.00509413      -0.02111981
Li       2.13328714       0.01941251       2.03935189      -0.08305974       0.29086376      -0.01656073
Li       2.01252859       2.08473724       0.04125362       0.01621826      -0.18412364       0.20095254
F        1.98460269       2.02741654       1.96938800       0.23777562       0.07844436       0.42474804
F       -0.02888939       2.01757059      -0.01812598      -0.02132961      -0.09997503      -0.02502043
F        2.08857228       0.00023482       0.05095808      -0.26064893      -0.15093610      -0.14050256
F       -0.03927218      -0.02152647       2.06901808       0.00633648      -0.01938843      -0.16832832
Li       4.14180582       0.04526694       0.00583904       0.06280742       0.32723715       0.44659933
Li       4.12958389       2.04892459       2.04722733      -0.05052423      -0.18009421      -0.08987085
Li       6.16165973      -0.00965936       2.11732760      -0.57379206       0.47995940      -0.36040284
Li       6.10264451       2.02155970       0.00117697      -0.38842967      -0.23559532       0.46749340
F        6.15619126       2.04584632       2.02511148       0.11337742      -0.02970833       0.07790597
F        4.07323424       2.05078916       0.01095283       0.08429979       0.10723737      -0.23723980
F        6.07289809       0.00400197      -0.01502162      -0.21618710       0.42093972       0.35778880
F        4.10906403      -0.01226691       2.04115374       0.01730430      -0.12209552       0.23012042
Li       0.00764230       4.05768807      -0.01880715       0.39364206       0.12307845       0.47492312
Li       0.02617768       6.10057598       1.92467373       0.35065399      -0.35076301       0.07870584
Li       2.09026067       4.05742078       2.04614493      -0.26411734      -0.03177446      -0.08758206
Li       2.01582265       6.03725671       0.08185400      -0.06683506      -0.21172572       0.23689527
F        2.03201509       6.11413932       2.06385214       0.14875966       0.14420032      -0.07680888
F        0.01736381       6.12307540       0.01471367       0.38849549      -0.46014493       0.29906069
F        2.03845720       4.04818777      -0.00282549       0.07662890       0.14305515      -0.24670172
F        0.01180014       4.07529327       2.02120623      -0.28218140       0.02324149       0.05821286
Li       4.10616068       4.03554274       0.00693711      -0.10455725       0.05412198       0.19407998
Li       4.11564022       6.12164056       2.06644136      -0.16549394      -0.19758234      -0.14875400
Li       6.05989697       4.11850518       2.01776253      -0.02080691      -0.20145262       0.09180047
Li       6.06492669       6.05814346       0.06395423      -0.77851872      -0.63849979       0.64463161
F        6.10359016       6.07006627       2.06634574       0.02498290       0.18815924      -0.16951643
F        4.08040698       6.19223743       0.01005779       0.16358027      -0.16515867       0.07614116
F        6.08960398       4.08980009      -0.00408020       0.06158023       0.14177937      -0.07718272
F        4.07465553       4.08465059       2.02434131       0.00055690      -0.05293079       0.08095350
Li       0.02416745       0.03310299       4.06447476       0.32194942       0.37139020       0.18288128
Li       0.02283651       2.02764877       6.16297950       0.24679094      -0.14993002      -0.54222020
Li       2.03466951       0.06578803       6.14692943      -0.22702378       0.22916860      -0.44118690
Li       2.01155163       2.01791385       4.17735292      -0.08401851       0.00238650      -0.30110909
F        2.02050821       2.06246924       6.13568745       0.16834324      -0.06190856       0.20439242
F       -0.04532402       2.06081909       4.09701794      -0.02954403       0.02283114      -0.06527568
F        2.05102526      -0.00717368       4.06582657       0.09666628      -0.07195438       0.14072393
F       -0.01200375       0.03798532       6.11597989       0.52660924       0.40795900      -0.31580809
Li       4.10186451      -0.00822954       4.13653108      -0.04720751       0.25565764      -0.12055286
Li       4.07857179       2.05117645       6.06759787       0.12069298       0.01558191      -0.08001119
Li       6.13250280       0.01380944       6.13140632      -0.87432188       0.85176328      -0.77573422
Li       6.12019398       2.02316502       4.10570069      -0.21883225       0.05419988      -0.07127766
F        6.08502698       2.00186362       6.11829974       0.12182452      -0.06360164       0.00851601
F        4.08076558       2.06842991       4.09910622      -0.10728931      -0.06724617      -0.09193802
F        6.11452417       0.00336842       4.08896204       0.14577949      -0.11283672       0.15377614
F        4.11360955      -0.01307653       6.14649023      -0.03512307      -0.01482498      -0.01562871
Li       0.04290575       4.11543877       4.03851491       0.11821341      -0.03273194       0.00029825
Li       0.05934769       6.03288652       6.11893977       0.72952635      -0.54402769      -0.86548860
Li       2.01846689       4.09491653       6.08101357       0.07896321       0.07682765      -0.16962956
Li       2.02334947       6.06587060       4.04962707      -0.11206539      -0.02763936       0.06436371
F        2.04024779       6.12396130       6.09886961      -0.06101228      -0.00782181       0.11069808
F        0.01766892       6.19177106       4.08988949      -0.05054789      -0.22927555       0.11776270
F        2.03402047       4.08958584       4.06218210       0.07060404      -0.15084277       0.02590206
F        0.03169076       4.09876420       6.11956303      -0.08242365       0.08339219       0.10970949
Li       4.05799126       4.08188366       4.02649770       0.02223593      -0.02863232       0.14060438
Li       4.09760050       6.09695124       6.08759725       0.07766223      -0.35151788      -0.31255924
Li       6.03556979       4.12132831       5.95614716      -0.17090560       0.12857393      -0.04041928
Li       6.00849033       6.10634594       4.09807252      -0.03556787      -0.34908202       0.14501896
F        6.13829498       6.12693073       6.05595911      -0.53393842      -0.41985009      -0.45020505
F        4.08363700       6.08303000       4.07839365      -0.04623203       0.24785923      -0.11685715
F        6.16565551       4.02468228       4.04806491      -0.03042489       0.09297212       0.02163018
F        4.07187007       4.11879847       6.12865459      -0.01166355      -0.16976274       0.06936142
64
Lattice="28.160000039244697 0.0 0.0 0.0 28.160000039244697 0.0 0.0 0.0 28.160000039244697" Properties=species:S:1:pos:R:3:REF_forces:R:3 config_type=LIF64_ISOLATED REF_energy=-32504.233214047203 pbc="T T T"
Li       0.09367279      -0.01910126       0.10622806       0.69299946       0.81452137       0.70245161
Li      -0.03733746       2.03749963       2.03549048       0.34757047      -0.00650078       0.00875383
Li       2.12619052       0.02353672       2.04579368      -0.07556858       0.28179162      -0.04036735
Li       2.00751055       2.08985394       0.04906518       0.02470984      -0.20998302       0.18183613
F        1.98335211       2.02730316       1.97312311       0.24930470       0.08649397       0.41186939
F       -0.02369889       2.01225768      -0.01707204      -0.03584503      -0.06940333      -0.03413577
F        2.07992178       0.00027649       0.05491411      -0.22368598      -0.14568436      -0.13850096
F       -0.04153240      -0.01923429       2.06781418       0.00802570      -0.02203050      -0.15115387
Li       4.14213093       0.04650108       0.00627721       0.05295624       0.32787839       0.44907402
Li       4.12852362       2.05191343       2.04314927      -0.03857195      -0.17533072      -0.07087220
Li       6.15294059      -0.01319271       2.12027581      -0.54977385       0.49494944      -0.36774360
Li       6.10316302       2.01448161      -0.00440024      -0.38066545      -0.21269091       0.48513786
F        6.15443821       2.04589001       2.02529716       0.11231427      -0.02665925       0.07357340
F        4.07589244       2.05620410       0.00910688       0.06011805       0.07261490      -0.23513715
F        6.07422353       0.00512917      -0.01368262      -0.23035027       0.41391187       0.34544596
F        4.11144637      -0.00684327       2.04148945      -0.00417033      -0.13991866       0.22485943
Li       0.01107113       4.05633021      -0.02144675       0.37456242       0.13410154       0.48276858
Li       0.03678028       6.10140374       1.92335893       0.31589859      -0.34662430       0.09049538
Li       2.09222820       4.06534975       2.04539906      -0.26300611      -0.05004832      -0.05683681
Li       2.01309186       6.03348512       0.08218005      -0.05371857      -0.19116281       0.22573694
F        2.03273396       6.11573554       2.06515713       0.14163950       0.13660502      -0.09257771
F        0.01151723       6.12432782       0.01499365       0.41483130      -0.47236796       0.29923758
F        2.03802381       4.05114581      -0.00048908       0.06541966       0.13142117      -0.24679454
F        0.01305790       4.07273274       2.02054397      -0.27711504       0.03254734       0.03753014
Li       4.10400488       4.02783021       0.01054378      -0.06870888       0.08600417       0.18625894
Li       4.11174189       6.12030074       2.06049933      -0.13910979      -0.19471170      -0.13938953
Li       6.06225842       4.11796713       2.02432108      -0.03077996      -0.19486571       0.06405441
Li       6.07068781       6.06103184       0.05485132      -0.79989796      -0.66062516       0.66800474
F        6.09961435       6.07005642       2.06732013       0.04991565       0.19737485      -0.17074182
F        4.08241476       6.19072361       0.01100525       0.14320248      -0.15325935       0.06761024
F        6.08973283       4.09419613      -0.00598518       0.07058527       0.12746758      -0.07915475
F        4.07688406       4.08516642       2.02406694      -0.02692511      -0.06049343       0.08874677
Li       0.02455983       0.03512635       4.06650695       0.30651792       0.37643007       0.17618279
Li       0.01798664       2.02667550       6.16470639       0.25562987      -0.13491890      -0.55280569
Li       2.03638058       0.06389196       6.14469821      -0.22712303       0.23647901      -0.43462159
Li       2.01067432       2.01096169       4.17611300      -0.08860253       0.03862337      -0.30735121
F        2.02297692       2.06431335       6.12871082       0.16403638      -0.07592828       0.23118460
F       -0.04466754       2.06231967       4.09579335      -0.03515367       0.00442873      -0.05996430
F        2.05039604      -0.00642651       4.06707128       0.09593017      -0.08609905       0.13899744
F       -0.01378314       0.03818884       6.11863981       0.53473804       0.41165084      -0.32191163
Li       4.10604109      -0.01103174       4.13444257      -0.05236103       0.27151544      -0.11680676
Li       4.07465800       2.05291960       6.06389409       0.13610854       0.00627941      -0.07565960
Li       6.12970985       0.01056206       6.12789003      -0.86582850       0.85950616      -0.76870508
Li       6.11262887       2.02261694       4.10348402      -0.20270526       0.05161438      -0.07743983
F        6.08267766       1.99593173       6.11495897       0.13112498      -0.04252630       0.01081637
F        4.08102306       2.06651168       4.09773659      -0.11224254      -0.05602022      -0.08768490
F        6.11666446       0.00409382       4.08537868       0.12912980      -0.13292809       0.16325657
F        4.11567581      -0.01103479       6.14719005      -0.04886253      -0.03429774      -0.02703926
Li       0.03652411       4.11632726       4.03530367       0.13825799      -0.03415196       0.01905856
Li       0.05926477       6.03550249       6.11938589       0.73212163      -0.56373211      -0.87130367
Li       2.02485060       4.08904582       6.08903531       0.04197763       0.09421859      -0.19573783
Li       2.02619914       6.05729629       4.05427242      -0.12120335      -0.00807738       0.06993169
F        2.04023221       6.12017357       6.10041193      -0.05096852      -0.00287141       0.11748399
F        0.01467335       6.18779020       4.09202372      -0.04475134      -0.21745491       0.10842085
F        2.03126494       4.09611336       4.06435930       0.09689485      -0.17914418       0.01426037
F        0.03008465       4.09843052       6.11914210      -0.08146669       0.07394621       0.12645945
Li       4.05881551       4.08733421       4.03696595       0.02036648      -0.03811532       0.10963132
Li       4.09838940       6.09147373       6.08551908       0.09119394      -0.33605115      -0.30878898
Li       6.04544482       4.11470742       5.95456326      -0.18350503       0.14648243      -0.03879332
Li       6.01550951       6.10764969       4.09121266      -0.05972544      -0.35266202       0.16013499
F        6.14129314       6.12123921       6.05659255      -0.52410010      -0.41588262      -0.45589567
F        4.08616795       6.08291270       4.07846899      -0.05421505       0.24468906      -0.10951691
F        6.16676191       4.02636268       4.04704031      -0.02500218       0.07657157       0.02720510
F        4.07612602       4.11879967       6.12884309      -0.02237143      -0.18689735       0.06696335
64
Lattice="28.160000039244697 0.0 0.0 0.0 28.160000039244697 0.0 0.0 0.0 28.160000039244697" Properties=species:S:1:pos:R:3:REF_forces:R:3 config_type=LIF64_ISOLATED REF_energy=-32504.22993058557 pbc="T T T"
Li       0.09631342      -0.02510974       0.10167028       0.69006558       0.83139937       0.72266125
Li      -0.04445040       2.03574680       2.03642359       0.36448987      -0.01277813      -0.00827098
Li       2.13198110       0.01777930       2.04374793      -0.11439095       0.29587227      -0.04378743
Li       2.00542566       2.09046809       0.04967381       0.02428330      -0.20643799       0.18016877
F        1.98042359       2.02651268       1.96850924       0.26341466       0.08182099       0.45349040
F       -0.02190941       2.01141521      -0.01436449      -0.05178510      -0.07031144      -0.04980741
F        2.08161318       0.00008821       0.05933511      -0.22034997      -0.16882969      -0.15870314
F       -0.04086829      -0.01481175       2.06638233       0.00801541      -0.03425815      -0.14358094
Li       4.13683720       0.04032531       0.01097817       0.07938590       0.34912110       0.42909501
Li       4.12925154       2.03856396       2.04380139      -0.02696959      -0.12078991      -0.08437949
Li       6.15153299      -0.01279424       2.12008226      -0.52832030       0.49673327      -0.37199723
Li       6.10757970       2.01929557      -0.00231579      -0.38996050      -0.21435827       0.48225565
F        6.15338003       2.04650889       2.02578816       0.12266862      -0.03329836       0.08454147
F        4.07792150       2.05465172       0.01424610       0.04972128       0.06025509      -0.23954043
F        6.07667151       0.00394162      -0.01161101      -0.25081574       0.40777079       0.36098648
F        4.10530565      -0.00797903       2.04312025       0.01385979      -0.14965980       0.23292961
Li       0.00818857       4.05380602      -0.01681873       0.38214821       0.12774577       0.46947238
Li       0.03634126       6.09892084       1.91547130       0.31314751      -0.33242101       0.11573744
Li       2.09709970       4.06596013       2.05204095      -0.26911608      -0.05983703      -0.08346392
Li       2.01017550       6.02328862       0.08518382      -0.03905994      -0.16773826       0.20518329
F        2.03504598       6.11720400       2.06410131       0.13278771       0.12421359      -0.08831765
F        0.01075431       6.12524107       0.01590788       0.41142099      -0.48172086       0.29209429
F        2.03687434       4.04876853      -0.00777886       0.06661214       0.13713647      -0.22138895
F        0.01421568       4.07339692       2.01935667      -0.28734752       0.03270340       0.04080906
Li       4.10095795       4.02238579       0.01518759      -0.04536892       0.09628987       0.18170115
Li       4.11129674       6.12206682       2.06126392      -0.13515467      -0.20578158      -0.15248673
Li       6.07201368       4.12337953       2.02683317      -0.07176103      -0.20849615       0.05456292
Li       6.07007130       6.06796433       0.05887951      -0.80868291      -0.68011721       0.65293139
F        6.09612804       6.07225988       2.06369735       0.07371996       0.20747646      -0.14768417
F        4.08412186       6.19027354       0.00978904       0.13762035      -0.15280555       0.07422389
F        6.09437285       4.09170842      -0.00667398       0.06775860       0.13563778      -0.06632469
F        4.07840479       4.08649094       2.02489429      -0.03797956      -0.06753414       0.08581185
Li       0.03451771       0.04529301       4.07041647       0.27398884       0.34305715       0.17232150
Li       0.02340224       2.03046535       6.15527736       0.23438871      -0.13533413      -0.52394532
Li       2.04149552       0.06522747       6.15467334      -0.24326055       0.23753908      -0.44050248
Li       2.00911646       2.00573410       4.16327939      -0.08796464       0.05338510      -0.28588842
F        2.02597822       2.06757987       6.12621455       0.16243973      -0.10885794       0.20891293
F       -0.04539219       2.06264708       4.09780345      -0.02856033       0.01177334      -0.06848030
F        2.04882128      -0.00659712       4.06947177       0.11774367      -0.07860814       0.12948204
F       -0.01485138       0.03973389       6.11893422       0.55537062       0.41957935      -0.32183964
Li       4.10117776      -0.00883132       4.12954213      -0.03094580       0.25904584      -0.10694504
Li       4.07842584       2.04051035       6.05183264       0.13103653       0.04110551      -0.04149632
Li       6.12710113       0.00956926       6.12847101      -0.85261792       0.85619201      -0.77019606
Li       6.11985028       2.03063353       4.10605600      -0.21001336       0.03862774      -0.09059770
F        6.08177079       1.99537791       6.11468512       0.12875802      -0.04739777       0.00249757
F        4.07923669       2.06897771       4.09310416      -0.11227108      -0.09010457      -0.07624144
F        6.11964590       0.00525227       4.08145301       0.10397901      -0.12838958       0.17538703
F        4.11803421      -0.01361029       6.15147802      -0.05859544      -0.02429127      -0.05029155
Li       0.03244773       4.12018312       4.03505463       0.14159476      -0.02425013       0.02117432
Li       0.06694065       6.04187415       6.12130715       0.72076352      -0.57550648      -0.86463011
Li       2.02440940       4.07582688       6.08119106       0.03884114       0.12765887      -0.16440456
Li       2.02861562       6.05917560       4.05205892      -0.13833049      -0.00632491       0.07692484
F        2.03384198       6.12275031       6.10303963      -0.02007877      -0.00753308       0.08993976
F        0.01264991       6.19078711       4.09161458      -0.03027525      -0.23330396       0.10486758
F        2.03007487       4.09170803       4.05638326       0.09082422      -0.15804571       0.04354703
F        0.03084384       4.09926237       6.12444025      -0.07362277       0.06639051       0.09431064
Li       4.04776651       4.08371215       4.03857241       0.05612230      -0.02760105       0.09400699
Li       4.10060545       6.08892384       6.08546791       0.06628124      -0.33573182      -0.29865369
Li       6.04563424       4.12291074       5.95757350      -0.19726172       0.12898787      -0.04248362
Li       6.01544127       6.11365091       4.09715376      -0.06870888      -0.36796009       0.13951963
F        6.14210988       6.12120036       6.05947005      -0.52806731      -0.41000174      -0.45749104
F        4.08650615       6.07992079       4.07654073      -0.06008720       0.25788036      -0.08414732
F        6.16604928       4.02807328       4.05024558      -0.00615419       0.08167109       0.02876525
F        4.07004420       4.11912025       6.13022194       0.00062683      -0.18065471       0.04765360
64
Lattice="28.160000039244697 0.0 0.0 0.0 28.160000039244697 0.0 0.0 0.0 28.160000039244697" Properties=species:S:1:pos:R:3:REF_forces:R:3 config_type=LIF64_ISOLATED REF_energy=-32504.243570155675 pbc="T T T"
Li       0.09642705      -0.02225282       0.10230143       0.69699496       0.82152171       0.71878428
Li      -0.03740946       2.03423147       2.03513643       0.34355029      -0.01339725      -0.00648612
Li       2.13507389       0.02275498       2.04716107      -0.10883634       0.28413595      -0.07401152
Li       2.00010301       2.09880350       0.04379450       0.04147524      -0.22633935       0.19127928
F        1.97995019       2.02179179       1.96845685       0.25180922       0.10937704       0.45357139
F       -0.01827780       2.01453837      -0.01402094      -0.05873377      -0.07249534      -0.04988377
F        2.07912310       0.00032877       0.06048364      -0.22415932      -0.16644216      -0.15829382
F       -0.04316945      -0.01339220       2.06733225       0.01283700      -0.03163280      -0.14019454
Li       4.13349597       0.04669425       0.01943818       0.07272288       0.33162011       0.41063294
Li       4.13018489       2.04122490       2.03911044      -0.03155566      -0.12777843      -0.06732922
Li       6.15601977      -0.01398549       2.11472019      -0.54063975       0.50191610      -0.34921494
Li       6.11034963       2.01992533       0.00127324      -0.39383027      -0.21933155       0.47443230
F        6.15106851       2.04735770       2.02332811       0.13016055      -0.02484457       0.07744600
F        4.07187180       2.05732094       0.01534062       0.07559995       0.05666274      -0.24257253
F        6.07331317       0.00412032      -0.01087022      -0.23833921       0.41713115       0.36613949
F        4.10409334      -0.00713013       2.04071558       0.02062282      -0.15630250       0.23793837
Li       0.01058488       4.05120267      -0.01086624       0.37084538       0.14398795       0.45213620
Li       0.03318117       6.10191646       1.91922153       0.32020622      -0.32717622       0.11661650
Li       2.08527539       4.06543955       2.05541836      -0.22399914      -0.04308552      -0.09346808
Li       2.00530678       6.01803147       0.09187562      -0.02880458      -0.15167915       0.19371180
F        2.03113404       6.11468342       2.06601666       0.13474560       0.12300209      -0.09191462
F        0.01329849       6.12438784       0.01743828       0.39763062      -0.48105777       0.29684852
F        2.03855201       4.05081921      -0.00982597       0.05513551       0.12371994      -0.20873115
F        0.01437886       4.07350554       2.01736254      -0.28414572       0.01229399       0.05601560
Li       4.10885532       4.01749221       0.01524995      -0.07065057       0.12012168       0.18693103
Li       4.11846645       6.12193406       2.05403465      -0.16407315      -0.21112202      -0.13236476
Li       6.07425753       4.11914259       2.02615866      -0.07969314      -0.19341124       0.06299280
Li       6.07231381       6.06947400       0.06668127      -0.81168210      -0.67226763       0.63587366
F        6.09454010       6.07233338       2.06330997       0.09985728       0.21122435      -0.13457231
F        4.08872973       6.19272124       0.01164150       0.13718892      -0.15365967       0.07985538
F        6.09454582       4.09396700      -0.00178218       0.07948591       0.11550938      -0.07500679
F        4.07958879       4.08901362       2.02653224      -0.04324673      -0.09121811       0.07395830
Li       0.04145012       0.04327176       4.06112536       0.24847681       0.34632657       0.18746633
Li       0.02365333       2.02555149       6.15146883       0.23574265      -0.13761187      -0.51503413
Li       2.04309811       0.05428310       6.15231739      -0.24379740       0.26856638      -0.42815758
Li       2.01810407       2.00410162       4.15745274      -0.08866912       0.05881039      -0.26847613
F        2.03194367       2.07381171       6.13142554       0.13036110      -0.15086076       0.17676489
F       -0.04592232       2.06153817       4.10123902      -0.01233770       0.01421177      -0.07784555
F        2.05407330      -0.00351347       4.06613579       0.09322023      -0.09983516       0.14751704
F       -0.01690130       0.03729965       6.11869799       0.58352343       0.41904071      -0.33271155
Li       4.09626588      -0.01961815       4.13663314       0.00589014       0.28987414      -0.12509240
Li       4.07009065       2.04398734       6.05456822       0.14751782       0.02991761      -0.04822130
Li       6.13449129       0.01340207       6.12586666      -0.85643575       0.85852837      -0.77779830
Li       6.11277284       2.03858527       4.10786722      -0.19976880       0.00351701      -0.09188454
F        6.08112043       1.99217141       6.11337663       0.12143706      -0.02587275       0.01320030
F        4.07889354       2.06369180       4.09085165      -0.11543662      -0.05873325      -0.06738373
F        6.12451565       0.00820200       4.08161453       0.09301223      -0.14267797       0.16620562
F        4.11587552      -0.01221882       6.14843131      -0.07004893      -0.04624232      -0.04430885
Li       0.03050904       4.11195838       4.03768413       0.13741338      -0.00149278       0.02049144
Li       0.07135316       6.04029113       6.12426434       0.71010861      -0.55772755      -0.86627870
Li       2.01729292       4.06524074       6.07228630       0.05498304       0.15842264      -0.13775071
Li       2.02692171       6.05495476       4.05616028      -0.13654152       0.01006561       0.06057699
F        2.02855110       6.12408832       6.10505297       0.00032627      -0.01720737       0.07604398
F        0.01065078       6.19382194       4.09215991      -0.02680864      -0.25031026       0.09696993
F        2.03142554       4.08777566       4.05153407       0.07010087      -0.16590069       0.06255828
F        0.03395763       4.10363613       6.12179304      -0.08772450       0.03196164       0.08792993
Li       4.04931213       4.08424910       4.03537187       0.05325449      -0.01858728       0.08754478
Li       4.09736079       6.08441815       6.08024967       0.06335250      -0.32498461      -0.29053594
Li       6.03950327       4.12020898       5.95915618      -0.18223696       0.13872567      -0.04205039
Li       6.02431204       6.11764349       4.09720396      -0.10378438      -0.38195434       0.14619807
F        6.14497980       6.11889975       6.05918787      -0.53286062      -0.40799242      -0.46247692
F        4.08311346       6.07583941       4.07620811      -0.03121474       0.26924155      -0.07661939
F        6.16772305       4.02904819       4.05195026      -0.01054667       0.07185411       0.01900534
F        4.06690866       4.11921448       6.12855257       0.01101152      -0.19005595       0.04303384
64
Lattice="28.160000039244697 0.0 0.0 0.0 28.160000039244697 0.0 0.0 0.0 28.160000039244697" Properties=species:S:1:pos:R:3:REF_forces:R:3 config_type=LIF64_ISOLATED REF_energy=-32504.22740414464 pbc="T T T"
Li       0.10067434      -0.02401653       0.10308341       0.69337150       0.82758463       0.70769280
Li      -0.04508653       2.03073929       2.03641898       0.35148266      -0.01208316      -0.01743491
Li       2.12994183       0.01984017       2.05005465      -0.09382290       0.29086350      -0.09228152
Li       2.00009906       2.09995307       0.05067169       0.04877151      -0.22936091       0.17071379
F        1.98018578       2.01997813       1.97250253       0.24429928       0.10680285       0.46667502
F       -0.01800255       2.01291481      -0.01162328      -0.06280562      -0.07679988      -0.04593713
F        2.08434173       0.00068612       0.05381566      -0.25690386      -0.17506796      -0.12304580
F       -0.05202177      -0.01428891       2.06873550       0.03549536      -0.03632840      -0.14732087
Li       4.14268492       0.04798531       0.01931155       0.02130056       0.33292803       0.39940185
Li       4.13742556       2.03835686       2.04562497      -0.05932923      -0.11995610      -0.09589881
Li       6.15473485      -0.01479668       2.10886263      -0.54170341       0.50133606      -0.34566219
Li       6.11715149       2.02131266      -0.00716030      -0.41987374      -0.21271174       0.48490800
F        6.14869848       2.05190873       2.02480853       0.13619802      -0.05862835       0.05951384
F        4.06653515       2.05388744       0.01160892       0.12466071       0.07498751      -0.21797633
F        6.07085451       0.00197064      -0.01263137      -0.20391548       0.42677279       0.37556772
F        4.10031109      -0.01078777       2.03693687       0.05591944      -0.14954256       0.26584461
Li       0.01367491       4.05330078      -0.01424841       0.37315294       0.13942810       0.44887193
Li       0.03665901       6.09542672       1.92515425       0.31588239      -0.31682316       0.07741874
Li       2.08207659       4.06478995       2.06767977      -0.20022852      -0.04209076      -0.13704366
Li       2.00787907       6.01803751       0.09039873      -0.02407221      -0.16489256       0.19682875
F        2.03416209       6.11111986       2.06921210       0.11338436       0.13568817      -0.08888972
F        0.01091763       6.12324887       0.01102208       0.41202005      -0.48668489       0.33868859
F        2.03703591       4.04860539      -0.00985104       0.05821235       0.13616048      -0.19526629
F        0.01418492       4.07109216       2.01690757      -0.28098789       0.02746092       0.07834563
Li       4.11758615       4.01446335       0.02124980      -0.11280689       0.11989928       0.17431848
Li       4.12124261       6.12690955       2.06839427      -0.18163275      -0.22570995      -0.17038058
Li       6.06861589       4.11696414       2.03029362      -0.06501189      -0.19000992       0.05064996
Li       6.07028384       6.06890409       0.06473340      -0.82026573      -0.67008091       0.63638351
F        6.09740687       6.06896161       2.06489536       0.09805905       0.22961648      -0.12477949
F        4.08488721       6.19665723       0.01035009       0.16250118      -0.15518099       0.09166626
F        6.09460340       4.09316787      -0.00591124       0.08498524       0.10991260      -0.07167490
F        4.08536386       4.09310967       2.02673477      -0.06078628      -0.10862397       0.08233289
Li       0.03477949       0.04481886       4.06457775       0.24879871       0.34277202       0.17957921
Li       0.03318721       2.02777317       6.15514347       0.20560006      -0.14406431      -0.51899337
Li       2.03991928       0.05307244       6.15263458      -0.23654560       0.26709802      -0.43552791
Li       2.02088473       1.99561400       4.15477926      -0.09127493       0.06640979      -0.27966352
F        2.03184339       2.07481756       6.12970400       0.12372637      -0.15357199       0.17535566
F       -0.05180364       2.05694707       4.09739598       0.00681677       0.04501436      -0.05163058
F        2.05001715      -0.00428045       4.06663638       0.10404277      -0.10347585       0.15253481
F       -0.01732236       0.03773689       6.11971389       0.59053792       0.42310562      -0.32428630
Li       4.10687396      -0.01769178       4.13585418      -0.02916197       0.28330883      -0.12230455
Li       4.07407153       2.05174723       6.05105004       0.13888251       0.02252595      -0.03963973
Li       6.13467217       0.00619091       6.12807367      -0.86281183       0.87708274      -0.77542414
Li       6.11244387       2.03318951       4.11238527      -0.19448724       0.02047395      -0.10068029
F        6.08144225       1.99755991       6.10927051       0.12698087      -0.03747409       0.01788588
F        4.07598401       2.06200799       4.08897329      -0.09685860      -0.06217904      -0.06225772
F        6.12404761       0.01033432       4.08185617       0.09677658      -0.15191414       0.15573326
F        4.11901437      -0.00915965       6.14812528      -0.06344506      -0.05453824      -0.04456776
Li       0.03247746       4.11233259       4.03457140       0.12905832      -0.00956707       0.02212177
Li       0.07768459       6.03612952       6.12182452       0.69227313      -0.53700009      -0.84287909
Li       2.01093981       4.05924859       6.06881927       0.08404191       0.18615533      -0.12851094
Li       2.02328235       6.05782879       4.06322095      -0.12198136       0.00428166       0.05011749
F        2.02697012       6.12246398       6.10966322       0.00480359      -0.00312492       0.06144371
F        0.01295458       6.19099465       4.09346725      -0.02824640      -0.25066070       0.08872029
F        2.03802737       4.09314957       4.05196583       0.02706343      -0.19674750       0.07241795
F        0.03566075       4.10863823       6.12649540      -0.08594452      -0.00854558       0.06869731
Li       4.05595670       4.08888483       4.03793920       0.03357501      -0.02595272       0.08268256
Li       4.10018538       6.08879116       6.07465759       0.04866250      -0.33445193      -0.26883532
Li       6.04508586       4.12547729       5.95512632      -0.20076125       0.13016210      -0.03165928
Li       6.03461831       6.12049929       4.09713616      -0.13132372      -0.38279175       0.14396635
F        6.14397635       6.12381893       6.06292995      -0.51636339      -0.41950531      -0.49122211
F        4.07993150       6.07718996       4.08022647       0.01522710       0.29015079      -0.08502998
F        6.16433510       4.02636631       4.04663563       0.00198952       0.09654698       0.05770892
F        4.06582275       4.12341627       6.12523958       0.03479885      -0.20838868       0.04191669
64
Lattice="28.160000039244697 0.0 0.0 0.0 28.160000039244697 0.0 0.0 0.0 28.160000039244697" Properties=species:S:1:pos:R:3:REF_forces:R:3 config_type=LIF64_ISOLATED REF_energy=-32504.246723410837 pbc="T T T"
Li       0.10345407      -0.02341303       0.11253120       0.68191467       0.81792782       0.67001406
Li      -0.04932502       2.02174886       2.03623684       0.36586027      -0.00203709      -0.01565365
Li       2.12986755       0.01886944       2.04887544      -0.09859692       0.29144329      -0.08467748
Li       2.00532770       2.10377096       0.05034091       0.02643865      -0.25157422       0.15962308
F        1.98199299       2.01636186       1.97157639       0.24969603       0.12623088       0.46462714
F       -0.01408701       2.01476371      -0.01198511      -0.07495666      -0.06815789      -0.02628156
F        2.07594228       0.00295010       0.05184127      -0.20493646      -0.18210918      -0.10545328
F       -0.05332241      -0.01829757       2.06331469       0.03222826      -0.02060431      -0.11905750
Li       4.14722356       0.04739751       0.01882268       0.01766399       0.33358521       0.39470753
Li       4.13914601       2.03813693       2.04317856      -0.06020958      -0.12002475      -0.08635796
Li       6.14594349      -0.01417771       2.10837818      -0.51274842       0.49069607      -0.33649621
Li       6.12475946       2.02365156      -0.00795734      -0.42288451      -0.20918932       0.48791259
F        6.14656781       2.04642550       2.02602075       0.13087584      -0.03955899       0.06161597
F        4.07030352       2.05252084       0.00908383       0.10942692       0.06654581      -0.20072808
F        6.07426402       0.00012435      -0.00659808      -0.21419475       0.42576774       0.36693370
F        4.10450292      -0.01183192       2.04244412       0.02704749      -0.14813899       0.24322070
Li       0.01611431       4.04728304      -0.00268759       0.36371057       0.13774737       0.42112202
Li       0.03755882       6.09542083       1.92422582       0.31759140      -0.30231725       0.09202621
Li       2.08228010       4.06916717       2.06477334      -0.20221521      -0.04330612      -0.13814383
Li       2.00104074       6.01655030       0.08937155      -0.00344425      -0.14907076       0.19723189
F        2.03513245       6.11207617       2.06922298       0.10405100       0.11975993      -0.08063725
F        0.01478601       6.12669709       0.01828951       0.40063855      -0.48808331       0.31940095
F        2.03913300       4.04904912      -0.01690524       0.05953518       0.12765450      -0.16622053
F        0.01552959       4.07213417       2.01518068      -0.28050298       0.01262926       0.08435969
Li       4.11157242       4.00790287       0.02381845      -0.08299238       0.15291507       0.16018513
Li       4.12338373       6.13590000       2.06906363      -0.18221640      -0.22645171      -0.17510935
Li       6.06521555       4.12146399       2.03220498      -0.05548852      -0.18244985       0.04526221
Li       6.07039980       6.07074912       0.06457593      -0.82585633      -0.67634206       0.63932383
F        6.09671135       6.07099811       2.06471151       0.10521160       0.22180521      -0.11769636
F        4.08655183       6.19661991       0.01335350       0.15907312      -0.14853366       0.08216166
F        6.09655589       4.09074708      -0.00612260       0.07840733       0.10402221      -0.06193170
F        4.08593776       4.09986241       2.02712837      -0.07692046      -0.15195760       0.07947537
Li       0.03618914       0.04280562       4.06661347       0.25178762       0.34688912       0.19634846
Li       0.03502423       2.03894193       6.15314373       0.20120322      -0.17490598      -0.51537249
Li       2.04272604       0.05008703       6.15673531      -0.23412440       0.27948071      -0.44570356
Li       2.02672664       1.99973392       4.15814242      -0.10979819       0.02985359      -0.28352172
F        2.03185761       2.07525876       6.12611856       0.12811087      -0.12461777       0.18041071
F       -0.05446986       2.05593537       4.10205754       0.00578858       0.06385849      -0.09083013
F        2.04425146      -0.00606215       4.06865962       0.12675847      -0.09873165       0.12040450
F       -0.01535893       0.04290045       6.11655596       0.58012598       0.40737690      -0.30774074
Li       4.10520386      -0.01821234       4.12805722      -0.02299209       0.28170343      -0.07764372
Li       4.07708238       2.06179306       6.04618617       0.13934274      -0.01226365      -0.02309005
Li       6.14062100       0.00432260       6.12675729      -0.88639836       0.88275819      -0.78532906
Li       6.11528680       2.03363267       4.10396688      -0.19883035       0.01235029      -0.07369450
F        6.07871604       1.99662522       6.10138821       0.14388356      -0.01915523       0.04454385
F        4.07426735       2.06402131       4.09241802      -0.10993394      -0.05510723      -0.10744332
F        6.12338951       0.00999809       4.08862411       0.10030053      -0.15740731       0.12082025
F        4.11778594      -0.00991468       6.14738397      -0.06966661      -0.05588344      -0.04428520
Li       0.02849243       4.10726993       4.03196005       0.12066547      -0.00466475       0.02276172
Li       0.08426612       6.03782013       6.11993558       0.66761805      -0.53345608      -0.83689614
Li       2.00829169       4.05792426       6.06034794       0.09137366       0.17977616      -0.09368020
Li       2.02047845       6.04617195       4.06815723      -0.11705333       0.05388827       0.02283191
F        2.02849363       6.12328958       6.10849917       0.00368696      -0.01494068       0.05479561
F        0.01333146       6.18972048       4.09683662      -0.02436969      -0.25893400       0.08489063
F        2.03460233       4.09053830       4.04598823       0.03882803      -0.19480220       0.09585947
F        0.03468131       4.10917333       6.12599216      -0.07151883      -0.00674683       0.06241841
Li       4.04544833       4.08653570       4.03117723       0.07536855      -0.01000159       0.09681103
Li       4.09112525       6.09120999       6.07188319       0.06564258      -0.33752002      -0.26219467
Li       6.04547409       4.12244297       5.95551912      -0.20623693       0.12910486      -0.03501997
Li       6.03327463       6.11463345       4.10967358      -0.12705800      -0.36779425       0.11510392
F        6.14567151       6.12325512       6.06087177      -0.51538071      -0.42357382      -0.47870238
F        4.07992717       6.08175463       4.08086296      -0.00119916       0.26211111      -0.07821296
F        6.16292558       4.02206420       4.04785888       0.00316374       0.11451668       0.04064117
F        4.06489959       4.12613389       6.12671334       0.01970545      -0.21198514       0.02595889
64
Lattice="28.160000039244697 0.0 0.0 0.0 28.160000039244697 0.0 0.0 0.0 28.160000039244697" Properties=species:S:1:pos:R:3:REF_forces:R:3 config_type=LIF64_ISOLATED REF_energy=-32504.258477776268 pbc="T T T"
Li       0.10114062      -0.02140537       0.12070815       0.67748928       0.80260071       0.64158254
Li      -0.04992604       2.01502693       2.03755735       0.36005394       0.01776555      -0.01735520
Li       2.13526579       0.02391999       2.04256962      -0.11326506       0.27210833      -0.06642162
Li       2.00640425       2.09882872       0.05481812       0.02601905      -0.22993453       0.13587689
F        1.97919381       2.01831032       1.96980696       0.26439477       0.10355632       0.47990798
F       -0.01623677       2.01423679      -0.00778204      -0.07558632      -0.07188856      -0.03020018
F        2.07341856      -0.00164765       0.04865426      -0.19320272      -0.15702498      -0.08011172
F       -0.05379134      -0.02125159       2.06019432       0.02778283      -0.01195614      -0.09183595
Li       4.14842346       0.04943229       0.02689627       0.01361502       0.32661366       0.36378513
Li       4.14636985       2.03585064       2.04877397      -0.07762855      -0.10363731      -0.10634983
Li       6.15112661      -0.00910119       2.10271801      -0.52247439       0.46957471      -0.32626065
Li       6.12706842       2.02569441       0.00242477      -0.43983528      -0.21148763       0.45598875
F        6.14412703       2.04183398       2.02625333       0.15644571      -0.02345309       0.07135583
F        4.07542812       2.05178105       0.00974107       0.09048483       0.07263264      -0.18697036
F        6.06918311      -0.00122717      -0.00520888      -0.18049864       0.42431250       0.37997099
F        4.10573388      -0.00928295       2.04078627       0.01582874      -0.14802124       0.25348660
Li       0.01147222       4.04454115      -0.00443800       0.37695046       0.13547400       0.42575874
Li       0.02555096       6.09383131       1.91358083       0.34833614      -0.30050617       0.12060454
Li       2.08369916       4.06921642       2.06340544      -0.20911630      -0.03405169      -0.14527427
Li       2.00543684       6.01744745       0.09051725      -0.01954013      -0.15673085       0.20379592
F        2.03262472       6.11356721       2.06894967       0.11653731       0.10771354      -0.08833308
F        0.00748911       6.12634972       0.01659767       0.40778339      -0.49374411       0.30837940
F        2.04029711       4.04818056      -0.01892054       0.05406541       0.12920925      -0.16610792
F        0.01680605       4.07158358       2.01493982      -0.28697214       0.01728244       0.07300390
Li       4.10986848       4.01284377       0.01951043      -0.08674208       0.13477029       0.16965810
Li       4.12788760       6.13556087       2.06953363      -0.20405406      -0.22911383      -0.17306532
Li       6.06743890       4.12727729       2.02870688      -0.07432262      -0.19005080       0.05168303
Li       6.07099087       6.06838186       0.06484184      -0.82536911      -0.67076765       0.63130918
F        6.09516022       6.06760648       2.06163731       0.12460723       0.24440110      -0.10765492
F        4.08777255       6.19257569       0.01279678       0.15750038      -0.14013721       0.07437019
F        6.09613468       4.09112978      -0.00267191       0.09542521       0.09992747      -0.06399142
F        4.08458294       4.10322902       2.02472393      -0.06671936      -0.16996329       0.10279759
Li       0.03001286       0.03930949       4.06963750       0.26558210       0.35547789       0.19682437
Li       0.03702761       2.04621575       6.14917932       0.18952707      -0.16945472      -0.50021146
Li       2.04068253       0.04984230       6.15489828      -0.22630182       0.28752261      -0.43837463
Li       2.02549089       1.99809230       4.15666120      -0.10941715       0.02689991      -0.27030162
F        2.03267002       2.07786278       6.12442559       0.13347034      -0.11776038       0.17693535
F       -0.05778147       2.06093070       4.10017632       0.01505304       0.03227557      -0.09674316
F        2.04232687      -0.00598590       4.07148451       0.12410844      -0.09393063       0.10140714
F       -0.01780979       0.04546870       6.12042559       0.58240166       0.40765869      -0.32784548
Li       4.10628064      -0.02024623       4.12883925      -0.02918433       0.28359268      -0.06346382
Li       4.08414472       2.07105139       6.04957668       0.11607708      -0.05203373      -0.02842663
Li       6.14252963       0.00908425       6.11598551      -0.88852543       0.86592235      -0.75963166
Li       6.11435804       2.03611453       4.09903604      -0.19700589       0.00288041      -0.05639329
F        6.08114438       1.99336170       6.10529830       0.14174055       0.01305221       0.02315201
F        4.07643076       2.06084453       4.09206280      -0.10697512      -0.03129393      -0.10993137
F        6.12172104       0.01058144       4.09069607       0.11287014      -0.15295236       0.09956468
F        4.11808924      -0.00853151       6.14786176      -0.06979928      -0.05575746      -0.05294776
Li       0.03133560       4.10521293       4.02291535       0.10246566       0.01164118       0.04728336
Li       0.08849583       6.04421592       6.12109938       0.65113008      -0.56035754      -0.84738187
Li       2.01455126       4.06008551       6.05672533       0.04816679       0.17113288      -0.07938641
Li       2.02523279       6.03643142       4.07259721      -0.14160274       0.09133715      -0.00114851
F        2.02938125       6.12451896       6.10861583       0.02565935      -0.02503766       0.05995273
F        0.01784123       6.18702299       4.09876756      -0.03393830      -0.25281143       0.08461115
F        2.03443141       4.08870945       4.04916072       0.06307250      -0.19956568       0.07978982
F        0.02851352       4.10970570       6.12721756      -0.03455357       0.00037898       0.06150207
Li       4.04552057       4.08433036       4.03480944       0.08143686       0.00044737       0.07599384
Li       4.09414931       6.09068247       6.07298233       0.06512064      -0.32359493      -0.26336915
Li       6.04743496       4.12139104       5.95548942      -0.19611578       0.13715756      -0.03516035
Li       6.03469680       6.11819634       4.11178969      -0.13066526      -0.37429683       0.11596344
F        6.14785419       6.12326673       6.06182747      -0.51366116      -0.42502752      -0.47780944
F        4.08429590       6.08228678       4.08213969      -0.01021525       0.25630787      -0.07927045
F        6.16202155       4.02345445       4.04761595       0.00997768       0.09877484       0.03689970
F        4.06762713       4.12817857       6.12264218       0.02210712      -0.22405904       0.03453454
64
Lattice="28.160000039244697 0.0 0.0 0.0 28.160000039244697 0.0 0.0 0.0 28.160000039244697" Properties=species:S:1:pos:R:3:REF_forces:R:3 config_type=LIF64_ISOLATED REF_energy=-32504.292986845117 pbc="T T T"
Li       0.10021011      -0.01588151       0.11680939       0.67363726       0.80477689       0.65459927
Li      -0.04260105       2.01913258       2.04939136       0.33567834       0.00955268      -0.03964821
Li       2.13062544       0.02432351       2.04095475      -0.10888288       0.26564047      -0.06870733
Li       2.00669209       2.09346413       0.05898907       0.02790290      -0.21154188       0.11660724
F        1.98288153       2.02428832       1.97143760       0.26188588       0.08199402       0.49645868
F       -0.01612878       2.01986027      -0.00453766      -0.06665662      -0.09096306      -0.03970786
F        2.07704515      -0.00045397       0.05044905      -0.21346995      -0.14973616      -0.08550101
F       -0.05202776      -0.01938873       2.05769401       0.04148372      -0.01427374      -0.07963761
Li       4.14797652       0.04783359       0.03198786       0.00662008       0.33110409       0.35865141
Li       4.14615125       2.04198052       2.05662614      -0.07921286      -0.11996510      -0.14148575
Li       6.14567458      -0.00048031       2.10496594      -0.51710798       0.44030810      -0.32246442
Li       6.12764408       2.02419791      -0.00007630      -0.45795050      -0.22113698       0.45781783
F        6.14089189       2.03534990       2.03322306       0.17102670       0.00551964       0.04888130
F        4.07485567       2.05355673       0.01398874       0.10245589       0.07574187      -0.19300834
F        6.06220112      -0.00240948      -0.00464968      -0.15453770       0.43410069       0.36997197
F        4.10498244      -0.00847687       2.03780012      -0.00385280      -0.13904346       0.28835488
Li       0.01047138       4.05029961      -0.00949426       0.38100046       0.11965348       0.42737777
Li       0.02463173       6.08503312       1.91315798       0.34824924      -0.28628488       0.12506077
Li       2.08290732       4.06879383       2.05002447      -0.21127475      -0.02803454      -0.11505687
Li       2.00638444       6.02252150       0.08979959      -0.01715363      -0.16907317       0.20286055
F        2.03368070       6.11179393       2.06415944       0.11537465       0.10538823      -0.07018083
F        0.01008487       6.12226838       0.01627114       0.39897685      -0.48449405       0.29488445
F        2.04236341       4.04602711      -0.02521321       0.05548055       0.14110600      -0.15015680
F        0.01644547       4.07456465       2.01114787      -0.27958484       0.01000545       0.09416691
Li       4.10665105       4.01355045       0.01758012      -0.09176679       0.12482346       0.16712273
Li       4.12845972       6.12831648       2.07615050      -0.20444924      -0.20743789      -0.19724115
Li       6.06975788       4.12327432       2.02122437      -0.07165844      -0.17093799       0.07284912
Li       6.06291248       6.06297678       0.06149955      -0.81184639      -0.64937093       0.63964059
F        6.09328445       6.06923184       2.06119215       0.11942980       0.22008335      -0.10445904
F        4.08523114       6.18962936       0.01724384       0.16029877      -0.14231365       0.05357793
F        6.09751840       4.09159865      -0.00325651       0.09295078       0.08464792      -0.06013425
F        4.08723481       4.10094039       2.02469267      -0.06594211      -0.16494938       0.10766803
Li       0.03005052       0.03430565       4.08226242       0.26324651       0.37300048       0.16468636
Li       0.03413689       2.03844561       6.15890271       0.20091886      -0.14243449      -0.52148580
Li       2.04145543       0.04993278       6.15347137      -0.22009543       0.29110056      -0.43024609
Li       2.03649051       1.99647215       4.15729705      -0.14976393       0.04334700      -0.26799714
F        2.02977987       2.07897620       6.12394578       0.14905636      -0.12964531       0.16574899
F       -0.05919165       2.06035081       4.10000470       0.02060816       0.03576147      -0.09245327
F        2.04028225      -0.00812184       4.07359916       0.14097230      -0.07814457       0.09784462
F       -0.01488244       0.04665548       6.11879174       0.56812227       0.38969259      -0.31175346
Li       4.09869786      -0.01391385       4.13135371       0.00209339       0.24816005      -0.07767534
Li       4.09090384       2.06801399       6.03761339       0.10654677      -0.03446101       0.02072823
Li       6.14192492       0.01054577       6.11602821      -0.87881874       0.85859136      -0.77248974
Li       6.11204619       2.03391801       4.09686980      -0.17068911       0.00854352      -0.04811820
F        6.08243939       1.99383179       6.09889961       0.14021228       0.00445187       0.04273919
F        4.08534244       2.06114175       4.09543324      -0.15356402      -0.03819785      -0.13584526
F        6.12232842       0.00604581       4.09127227       0.09902835      -0.14071750       0.10539415
F        4.11604762      -0.00560344       6.14348006      -0.07454785      -0.05405024      -0.04384862
Li       0.02944391       4.10454404       4.02418518       0.11088242       0.01754315       0.04945131
Li       0.09304424       6.04247685       6.12479781       0.64043840      -0.55126406      -0.85074050
Li       2.01026585       4.05753329       6.05059215       0.05785779       0.17964761      -0.06590869
Li       2.03129838       6.04076290       4.07051716      -0.16460511       0.07786612       0.00634240
F        2.02917617       6.12818089       6.10770086       0.03026317      -0.03508322       0.05774595
F        0.01573001       6.18589092       4.10074073      -0.01994250      -0.26235357       0.07519011
F        2.03902750       4.08814604       4.04650367       0.04775953      -0.19955669       0.08193874
F        0.02605642       4.11006527       6.13196601      -0.02386704      -0.00768966       0.05315396
Li       4.04517659       4.08976430       4.03140556       0.08071850      -0.00738498       0.09029406
Li       4.10083951       6.08975360       6.07529415       0.04674805      -0.32059548      -0.25709592
Li       6.04340208       4.12225368       5.95573762      -0.18378348       0.12971601      -0.03457362
Li       6.02848154       6.11261047       4.11152640      -0.10606495      -0.36687560       0.10986864
F        6.14276493       6.11968539       6.06166257      -0.50904783      -0.40862234      -0.47125698
F        4.08030693       6.08257142       4.08157107       0.00248497       0.25576280      -0.08442012
F        6.16471217       4.02511139       4.05025929      -0.00394382       0.10110580       0.00903563
F        4.06912270       4.13121552       6.12231039       0.01367107      -0.24210330       0.02658341
64
Lattice="28.160000039244697 0.0 0.0 0.0 28.160000039244697 0.0 0.0 0.0 28.160000039244697" Properties=species:S:1:pos:R:3:REF_forces:R:3 config_type=LIF64_ISOLATED REF_energy=-32504.317211915662 pbc="T T T"
Li       0.10798156      -0.01013223       0.11907916       0.64514712       0.77668630       0.64411482
Li      -0.04402579       2.01938911       2.05178812       0.33373330       0.00869136      -0.01776118
Li       2.12423310       0.02765618       2.04083987      -0.09404375       0.24956953      -0.05018639
Li       2.00289138       2.09121465       0.05888853       0.05721424      -0.18853822       0.11965271
F        1.99052667       2.02444760       1.97539195       0.21634008       0.07370967       0.46684934
F       -0.01853331       2.02334032      -0.00888665      -0.04507092      -0.11436601      -0.01615758
F        2.07528056      -0.00554774       0.05190700      -0.20898595      -0.12465531      -0.07800393
F       -0.05007022      -0.02325096       2.05924580       0.05114438       0.00494706      -0.09638012
Li       4.14295599       0.04775125       0.04097267       0.02269744       0.33328696       0.34327827
Li       4.14613229       2.04442578       2.06056774      -0.08939829      -0.11715823      -0.15470276
Li       6.14423775       0.00738811       2.10747607      -0.51403346       0.42049955      -0.32696616
Li       6.12628908       2.02259043       0.00526739      -0.46531516      -0.22766064       0.43623959
F        6.14449099       2.03416159       2.03394633       0.17311083       0.02823920       0.04252656
F        4.07411967       2.05585276       0.01212568       0.10620610       0.06323731      -0.18582648
F        6.05964032      -0.00200458      -0.00370343      -0.15927958       0.43772620       0.37924157
F        4.10486223      -0.00372674       2.04528374      -0.01187695      -0.14446463       0.25640455
Li       0.01093363       4.03918833      -0.00994729       0.38353249       0.15457189       0.42099397
Li       0.02218520       6.08241739       1.91032201       0.35581111      -0.28428636       0.11877314
Li       2.08193617       4.06875506       2.04932454      -0.20936416      -0.02721513      -0.11632648
Li       2.01394970       6.02003520       0.09284214      -0.04011127      -0.16488999       0.19995855
F        2.03150843       6.11198585       2.06424850       0.13966258       0.10318865      -0.05916931
F        0.01192961       6.11576159       0.01560654       0.39263779      -0.47071242       0.28664869
F        2.04259990       4.04464192      -0.02533285       0.06494478       0.13279388      -0.15443357
F        0.02154876       4.07654861       2.00710557      -0.29076323      -0.02197239       0.11387313
Li       4.10732975       4.02040063       0.01007344      -0.10067694       0.10509873       0.18226627
Li       4.13068825       6.12455847       2.08332755      -0.21330180      -0.19628290      -0.23550122
Li       6.07260878       4.12203020       2.01523419      -0.08695548      -0.16793546       0.07789466
Li       6.06978651       6.06279456       0.06449567      -0.83086253      -0.64001623       0.63591377
F        6.08922766       6.06693327       2.06349583       0.14373624       0.22543381      -0.10460662
F        4.08461800       6.19236727       0.02351896       0.16410657      -0.15052626       0.04096050
F        6.09603993       4.09737518      -0.00799970       0.10692704       0.07508521      -0.04582683
F        4.08747137       4.09661049       2.02179150      -0.05731066      -0.13645744       0.12196748
Li       0.03543694       0.02392458       4.08868948       0.25090933       0.39779054       0.15607856
Li       0.03682025       2.04078171       6.16342488       0.19948032      -0.14229359      -0.53818537
Li       2.03805409       0.04249567       6.15938749      -0.21035172       0.31252633      -0.44044180
Li       2.04239807       1.99141413       4.14972440      -0.16611615       0.05413432      -0.24543365
F        2.03000876       2.07738533       6.12328660       0.14569002      -0.13848322       0.16414668
F       -0.06014294       2.05769756       4.09773051       0.02702589       0.04399337      -0.09332307
F        2.03766334      -0.01054285       4.07081207       0.14061852      -0.08311117       0.11377903
F       -0.01715631       0.04551026       6.12333257       0.58135059       0.38180316      -0.31293616
Li       4.10042654      -0.01156823       4.13124310      -0.00998102       0.23692664      -0.08313919
Li       4.09158464       2.07139683       6.03793489       0.08992125      -0.03762552       0.01657333
Li       6.14387574       0.01712173       6.11021541      -0.88274276       0.83847788      -0.75776555
Li       6.11040816       2.03938172       4.09871310      -0.17530578      -0.00270300      -0.05801411
F        6.08342148       1.99362974       6.10490201       0.13610623       0.01404594       0.00540986
F        4.08276645       2.06255647       4.08898428      -0.12356028      -0.03451295      -0.09185986
F        6.11887858       0.00694427       4.08680554       0.11502601      -0.12288562       0.13369222
F        4.11400549      -0.00801291       6.14174326      -0.06597811      -0.04275076      -0.04762146
Li       0.02988414       4.10779942       4.02461451       0.11817973       0.01157639       0.05624031
Li       0.09877931       6.04570869       6.12289205       0.63016761      -0.56518350      -0.84618090
Li       2.01672395       4.05318328       6.05120916       0.04323284       0.19087356      -0.06997257
Li       2.03424963       6.04238688       4.06719451      -0.18990271       0.06669827       0.01037517
F        2.02952469       6.12218356       6.11151987       0.04857328       0.00349053       0.04255536
F        0.01683175       6.18551877       4.09620746      -0.01730687      -0.25506295       0.08545910
F        2.04138449       4.09089745       4.04818873       0.04702959      -0.19967984       0.06124291
F        0.02565575       4.11372478       6.13054408      -0.02179756      -0.02226395       0.05299558
Li       4.04486444       4.09899902       4.02756850       0.06589969      -0.04656268       0.09894659
Li       4.10487653       6.10110819       6.07336723       0.02198705      -0.36548283      -0.23755708
Li       6.04944608       4.12870482       5.95176120      -0.21091171       0.11450511      -0.01417681
Li       6.02213029       6.11148846       4.11417729      -0.07715546      -0.36247567       0.08905324
F        6.14169399       6.11467759       6.06510586      -0.51258155      -0.39298618      -0.48121667
F        4.08175866       6.08631995       4.07869537      -0.00256185       0.26038179      -0.05966116
F        6.16266884       4.02972015       4.04630555      -0.00065023       0.08911572       0.03343385
F        4.06152963       4.12857489       6.12231319       0.06610306      -0.21790331       0.01179545
64
Lattice="28.160000039244697 0.0 0.0 0.0 28.160000039244697 0.0 0.0 0.0 28.160000039244697" Properties=species:S:1:pos:R:3:REF_forces:R:3 config_type=LIF64_ISOLATED REF_energy=-32504.31391416805 pbc="T T T"
Li       0.10896868      -0.01054496       0.11325297       0.65130774       0.78375092       0.65612599
Li      -0.04739859       2.02158590       2.05294212       0.34809112      -0.02072103      -0.03106793
Li       2.11516324       0.02711148       2.04388992      -0.08736454       0.24514954      -0.06731585
Li       2.00761267       2.09912103       0.05737037       0.04296236      -0.21915569       0.11949690
F        1.98846698       2.02795892       1.97280706       0.22825457       0.07873823       0.49462754
F       -0.01783460       2.02095290      -0.00832432      -0.06046052      -0.08644255      -0.01377520
F        2.07367337      -0.00499497       0.05205342      -0.20193059      -0.12993481      -0.08580723
F       -0.05040958      -0.02383078       2.05680861       0.04711598       0.01232535      -0.08552569
Li       4.14436020       0.04579482       0.03908987       0.01647769       0.33386649       0.35829248
Li       4.14881741       2.04652725       2.06454562      -0.10188793      -0.13631655      -0.17805635
Li       6.14919982       0.01462530       2.11135004      -0.52274770       0.39797489      -0.33291261
Li       6.12760576       2.02583168       0.00284992      -0.46690154      -0.23832481       0.43527542
F        6.14904891       2.03465369       2.03866960       0.15621483       0.03373236       0.03290935
F        4.07294269       2.05524772       0.01398859       0.13005077       0.07521737      -0.18053798
F        6.06389464      -0.00227855      -0.00538948      -0.16876078       0.45609776       0.38536594
F        4.10215947      -0.00725050       2.04499060       0.00127218      -0.11817844       0.26480743
Li      -0.00000797       4.04361019      -0.00032812       0.40522360       0.13116663       0.38160827
Li       0.03220296       6.07429782       1.90618443       0.32112564      -0.25165418       0.14508684
Li       2.08105837       4.07035491       2.04521858      -0.18990708      -0.04547870      -0.10255899
Li       2.01203022       6.02313721       0.10560770      -0.02725421      -0.18375649       0.14422115
F        2.03638947       6.10650733       2.06508306       0.11123055       0.11660544      -0.08057297
F        0.01314472       6.11142003       0.01234261       0.39566295      -0.47090191       0.31189024
F        2.04677282       4.04232125      -0.02776971       0.05014448       0.16606318      -0.12693048
F        0.01920830       4.07663520       2.00815303      -0.29107253      -0.01092616       0.10563789
Li       4.10955683       4.02363791       0.01025543      -0.11105032       0.09452712       0.17710504
Li       4.13025650       6.12797337       2.07583349      -0.20147679      -0.20688382      -0.21071862
Li       6.06847559       4.12182175       2.01466026      -0.06734362      -0.15511311       0.07692612
Li       6.06625600       6.06376728       0.05885598      -0.81643633      -0.64515046       0.64690910
F        6.08899660       6.06461443       2.05944829       0.14844804       0.23716344      -0.10770017
F        4.08380382       6.18956492       0.02455364       0.16349876      -0.13844465       0.03760727
F        6.09707173       4.09659483      -0.00864661       0.09973309       0.07075804      -0.05120301
F        4.09238284       4.10047530       2.02465178      -0.07730793      -0.17104624       0.10447292
Li       0.03012161       0.02707649       4.09599540       0.26836969       0.38218471       0.13785895
Li       0.04016750       2.03457153       6.16043939       0.19029609      -0.12489802      -0.52812593
Li       2.03822785       0.04189266       6.16578245      -0.20618679       0.30267798      -0.45719768
Li       2.05057018       1.99321836       4.14527806      -0.18960086       0.04053576      -0.23589409
F        2.02769665       2.07956724       6.12627822       0.15653442      -0.16035251       0.15506092
F       -0.05662356       2.05715986       4.09810016       0.01214538       0.05261017      -0.09018016
F        2.03204396      -0.01481376       4.07213876       0.15995090      -0.05538079       0.11462338
F       -0.01666541       0.04121691       6.12271454       0.57451840       0.39341067      -0.30382083
Li       4.09809783      -0.00643354       4.12892619      -0.00876438       0.21377000      -0.08110596
Li       4.09308542       2.07249781       6.04422907       0.09697250      -0.03351176       0.00529030
Li       6.14078702       0.01594219       6.10706693      -0.88115562       0.83713576      -0.75335688
Li       6.11163584       2.04544867       4.09370132      -0.17640750      -0.01803500      -0.03272063
F        6.07936632       1.99403391       6.10823782       0.15233529       0.01952161       0.00092123
F        4.08142673       2.05876253       4.09123083      -0.12866417      -0.02348240      -0.10917418
F        6.11938066       0.00896868       4.08760425       0.11650877      -0.11569810       0.13159806
F        4.11481513      -0.01146669       6.14420685      -0.07644635      -0.03050640      -0.05069393
Li       0.02930902       4.10864009       4.01955113       0.12551946       0.01686412       0.08238946
Li       0.10051092       6.03960903       6.12422118       0.62492411      -0.54274625      -0.84036841
Li       2.01771322       4.04401348       6.04876083       0.03584838       0.22380476      -0.06439199
Li       2.03586335       6.04562202       4.06886192      -0.18755555       0.06236262       0.02614221
F        2.02567456       6.12494054       6.11173411       0.08388147      -0.00110866       0.04308166
F        0.01989630       6.19310196       4.09661670      -0.01646843      -0.27972445       0.06539241
F        2.03951575       4.09371434       4.04787847       0.05097289      -0.21778632       0.05142721
F        0.02523244       4.11721276       6.13541259      -0.02138258      -0.04786314       0.03344748
Li       4.04520358       4.09895737       4.02395988       0.06850396      -0.02664537       0.12357879
Li       4.10633941       6.10337213       6.08211955       0.01874977      -0.38148692      -0.26780071
Li       6.06290194       4.12789732       5.95400336      -0.25475519       0.11943905      -0.02611829
Li       6.01452581       6.11206342       4.10862053      -0.07044231      -0.36169225       0.09737256
F        6.13451286       6.11780688       6.06189933      -0.49498878      -0.39213128      -0.46451015
F        4.08347784       6.08616517       4.06989940      -0.02312090       0.27170004      -0.03123710
F        6.16086146       4.02984312       4.04978706       0.01407345       0.08350120       0.01679136
F        4.06208775       4.12715428       6.11690654       0.06092229      -0.21117653       0.02803865
64
Lattice="28.160000039244697 0.0 0.0 0.0 28.160000039244697 0.0 0.0 0.0 28.160000039244697" Properties=species:S:1:pos:R:3:REF_forces:R:3 config_type=LIF64_ISOLATED REF_energy=-32504.324969336973 pbc="T T T"
Li       0.10755799      -0.01584820       0.10994198       0.64811134       0.80490159       0.66630473
Li      -0.04983484       2.02874267       2.05527787       0.34653586      -0.03517295      -0.04966600
Li       2.11428405       0.02697872       2.04779052      -0.09256126       0.24241518      -0.07129489
Li       2.01160954       2.09590609       0.06309240       0.01305632      -0.19293687       0.09059205
F        1.98722624       2.03396041       1.97380535       0.24821456       0.04005496       0.49512711
F       -0.01806265       2.02394602      -0.01012095      -0.06200652      -0.10246283      -0.00503833
F        2.07205248      -0.00447469       0.05182267      -0.19138983      -0.12496281      -0.07029293
F       -0.05435593      -0.02025243       2.05794333       0.06264056       0.00474497      -0.08829400
Li       4.14095040       0.04657298       0.04084705       0.04046865       0.32529314       0.34692203
Li       4.13888464       2.04292200       2.06041099      -0.07848395      -0.11353503      -0.15572683
Li       6.14262774       0.01831436       2.11252795      -0.50650655       0.38184044      -0.33860992
Li       6.13429299       2.02611446       0.00922427      -0.46790812      -0.25439780       0.42093715
F        6.14553674       2.03339716       2.04054171       0.15449502       0.03565426       0.01970416
F        4.07566866       2.05855937       0.01502775       0.11334245       0.03959036      -0.17209705
F        6.06646637      -0.00225161      -0.00589007      -0.18891823       0.46612866       0.39286302
F        4.10275829      -0.00912406       2.04530623      -0.02159367      -0.10257339       0.25152331
Li      -0.00266930       4.04247585      -0.00243876       0.41611505       0.13483636       0.37563072
Li       0.04440177       6.07835008       1.90533058       0.28865235      -0.25121966       0.14412010
Li       2.07420585       4.06986376       2.04553326      -0.15686223      -0.03348785      -0.12208189
Li       2.01481079       6.02311775       0.10449800      -0.01997927      -0.19435380       0.13660734
F        2.03794618       6.10564650       2.06790248       0.10605723       0.12709374      -0.08836162
F        0.01039412       6.11304462       0.01413179       0.40942915      -0.46671590       0.31101324
F        2.04359897       4.04231373      -0.02961384       0.06896701       0.15801897      -0.12247990
F        0.02591904       4.07735022       2.00476592      -0.30113789      -0.01414467       0.13216756
Li       4.11862277       4.01078096       0.00615545      -0.14988657       0.13424938       0.18473633
Li       4.13389314       6.13667843       2.07947861      -0.21132360      -0.23740564      -0.22596372
Li       6.06822249       4.11872859       2.00433590      -0.06819748      -0.15246153       0.12850965
Li       6.06576893       6.05683451       0.06620713      -0.81613396      -0.61961169       0.62170997
F        6.09423950       6.05813120       2.05845453       0.12975021       0.25757311      -0.12306945
F        4.08260108       6.19316182       0.01905451       0.17719709      -0.14308446       0.06456271
F        6.09535512       4.09311020      -0.01134921       0.11339516       0.06204355      -0.04564171
F        4.09415918       4.10266416       2.02654016      -0.08464277      -0.18636076       0.07975511
Li       0.03028089       0.02866506       4.09239648       0.26489639       0.38376311       0.13723392
Li       0.04606581       2.02493407       6.16345832       0.17012167      -0.09954514      -0.53288144
Li       2.03166466       0.04096238       6.16589320      -0.18507392       0.30045217      -0.46082216
Li       2.04954220       1.99523595       4.14082772      -0.18317105       0.04038535      -0.21802723
F        2.02548803       2.08022894       6.12481410       0.16327688      -0.16908860       0.17253413
F       -0.05054082       2.05631519       4.09760030       0.00664913       0.05324009      -0.10062552
F        2.03598199      -0.01168167       4.07340458       0.13712439      -0.06673221       0.09945027
F       -0.01708307       0.04224713       6.12216782       0.57861802       0.38268222      -0.30156598
Li       4.09832359      -0.00453389       4.13200136      -0.01316173       0.20788577      -0.07107943
Li       4.08813788       2.07242956       6.04453717       0.11490774      -0.03781810       0.00754465
Li       6.14421035       0.01648330       6.09935182      -0.88751704       0.83590960      -0.73414431
Li       6.10861282       2.04032650       4.09240654      -0.16969872       0.01915163      -0.01966431
F        6.07683036       1.98974438       6.10751580       0.15194474       0.01760486      -0.00150281
F        4.07643827       2.06017331       4.09487170      -0.11505610      -0.03394216      -0.13697269
F        6.11585701       0.00858241       4.08434781       0.12211274      -0.11565002       0.13394985
F        4.11605610      -0.01341648       6.14295395      -0.08949779      -0.03075219      -0.05163624
Li       0.04178724       4.10454172       4.01610827       0.08949676       0.02970730       0.10230625
Li       0.10931571       6.03746915       6.12545298       0.58569859      -0.53559987      -0.83855013
Li       2.01056828       4.04149563       6.05474664       0.05215791       0.22913517      -0.07766737
Li       2.03348685       6.04270096       4.06705133      -0.17545182       0.06993015       0.03853672
F        2.02110278       6.12319100       6.11739881       0.11808794      -0.00817919       0.03758979
F        0.02051556       6.19431486       4.10133579       0.00752613      -0.28774835       0.04839742
F        2.04266559       4.09101973       4.04745424       0.03582061      -0.20341154       0.05662392
F        0.02580927       4.11498398       6.13325988      -0.01130668      -0.05476270       0.04080084
Li       4.04605485       4.09369147       4.01841735       0.07974405      -0.01025484       0.13130470
Li       4.10742373       6.10214512       6.08834393       0.01400171      -0.37752845      -0.28026259
Li       6.05300706       4.13433207       5.95873779      -0.22800491       0.10605081      -0.05473442
Li       6.00331192       6.11408987       4.10817870      -0.02580256      -0.37960616       0.10158249
F        6.12903043       6.12024252       6.06091440      -0.49854924      -0.37963392      -0.44572464
F        4.08512940       6.08764001       4.06802708      -0.05099732       0.27592745      -0.02410898
F        6.16495008       4.03190966       4.05125738      -0.00964832       0.06381684       0.01828080
F        4.06625609       4.12880514       6.11731384       0.03185520      -0.21494062       0.03966621
64
Lattice="28.160000039244697 0.0 0.0 0.0 28.160000039244697 0.0 0.0 0.0 28.160000039244697" Properties=species:S:1:pos:R:3:REF_forces:R:3 config_type=LIF64_ISOLATED REF_energy=-32504.329530509134 pbc="T T T"
Li       0.10822891      -0.01353296       0.10844287       0.63201624       0.80315324       0.67546634
Li      -0.05273956       2.03177830       2.05968594       0.34674386      -0.04168144      -0.06170339
Li       2.12303893       0.02821126       2.04243479      -0.11880528       0.23985539      -0.04007399
Li       2.01379179       2.08990298       0.05966672       0.01443752      -0.16546077       0.10224352
F        1.98803311       2.03283635       1.97478001       0.24487366       0.02947924       0.48046848
F       -0.01739082       2.02469966      -0.01441658      -0.05040056      -0.10961358      -0.00376872
F        2.07138640      -0.00066011       0.04894795      -0.17548499      -0.12734365      -0.05804882
F       -0.05652892      -0.02018995       2.06160801       0.07019240       0.01625220      -0.11267757
Li       4.13323487       0.04744444       0.04406035       0.08830042       0.32867749       0.32453415
Li       4.14095637       2.04556433       2.06310504      -0.07371250      -0.09842903      -0.16713045
Li       6.13811740       0.01322720       2.11754680      -0.48958406       0.38688341      -0.36843754
Li       6.13353390       2.02506720       0.01455374      -0.46635260      -0.25216608       0.40737767
F        6.14269884       2.03472135       2.04291982       0.16022292       0.01808771       0.02810756
F        4.07922672       2.06108416       0.01656158       0.08289314       0.01607711      -0.17254005
F        6.06664049      -0.00327237      -0.00683425      -0.20622947       0.46626390       0.40261624
F        4.11058543      -0.00985027       2.04538994      -0.06027463      -0.10407414       0.25775566
Li       0.00213204       4.03560284      -0.01262408       0.40727560       0.15551420       0.39820474
Li       0.04403182       6.07523326       1.91301785       0.29059688      -0.24780061       0.11521139
Li       2.07726776       4.06492195       2.04545401      -0.16318380      -0.01171832      -0.12210580
Li       2.01409694       6.02258535       0.10304504      -0.03560901      -0.18487517       0.15161538
F        2.03803342       6.10275193       2.07312399       0.10365325       0.13298980      -0.11599249
F        0.01242247       6.11561825       0.01256308       0.41743145      -0.47755027       0.32688440
F        2.04595848       4.04538763      -0.02812894       0.06045743       0.13098845      -0.13562158
F        0.02184572       4.07552518       2.00451584      -0.29113681      -0.02512971       0.13005617
Li       4.11335664       4.01422382       0.00787176      -0.13021969       0.12241099       0.18239149
Li       4.13051362       6.14777589       2.07365811      -0.21075281      -0.25743530      -0.19071441
Li       6.06041671       4.11893814       2.00568284      -0.05604156      -0.15408827       0.12330214
Li       6.06088427       6.05494147       0.05992973      -0.80273723      -0.62321175       0.63151436
F        6.09037993       6.05474845       2.05812263       0.13947798       0.26965627      -0.12605810
F        4.08501899       6.19738010       0.02066764       0.16120251      -0.14059666       0.05662906
F        6.09409066       4.09260080      -0.01209841       0.10860031       0.06851039      -0.04644389
F        4.09057142       4.10018082       2.02007564      -0.07917918      -0.17725211       0.10132949
Li       0.03171877       0.02972020       4.09120860       0.26465239       0.36828276       0.13935765
Li       0.04681471       2.02253002       6.15972086       0.16484371      -0.09962331      -0.51891624
Li       2.02789910       0.04208020       6.17083797      -0.18096478       0.29542181      -0.46790555
Li       2.04631191       1.99513607       4.13621355      -0.17446478       0.04001845      -0.19594917
F        2.02285686       2.07443144       6.12591383       0.17653066      -0.14305104       0.16416185
F       -0.04988541       2.05769583       4.09828174       0.00358977       0.05167789      -0.10804624
F        2.03448842      -0.01249105       4.07592980       0.15982826      -0.05776549       0.07022557
F       -0.01651943       0.04034237       6.12125408       0.56968447       0.38492345      -0.30090443
Li       4.10203020      -0.00261713       4.12893800      -0.03986830       0.19099543      -0.04712884
Li       4.09670099       2.06615989       6.03700240       0.08807314      -0.00896647       0.03394268
Li       6.14709256       0.02468783       6.10142269      -0.89077849       0.80979902      -0.71080898
Li       6.11097583       2.02634785       4.09226248      -0.16969795       0.08319344      -0.02326694
F        6.07685595       1.99240231       6.11602953       0.15299889      -0.01328309      -0.03547480
F        4.07334794       2.06845655       4.09285412      -0.09519304      -0.09193005      -0.13179038
F        6.11562496       0.00833021       4.08464342       0.12167360      -0.09933817       0.14333617
F        4.11797463      -0.01890299       6.14476135      -0.07340602      -0.00243021      -0.07469055
Li       0.03939270       4.09721122       4.01314547       0.09331819       0.04987606       0.11310283
Li       0.11049823       6.03026768       6.12652645       0.58477196      -0.50903317      -0.83936131
Li       2.00793519       4.04003882       6.05922386       0.07250639       0.22889040      -0.09095509
Li       2.02906097       6.03596352       4.06778197      -0.15414895       0.09514136       0.05019668
F        2.02311943       6.12786419       6.11608823       0.09388615      -0.03621656       0.04792536
F        0.01954007       6.19388241       4.10600195       0.00029156      -0.29976749       0.03093269
F        2.04197470       4.09261551       4.04616607       0.01853508      -0.23494432       0.06355998
F        0.02307276       4.11331891       6.13345198       0.00300151      -0.06619716       0.04287263
Li       4.04456813       4.09545658       4.01557416       0.09099725       0.01057418       0.15108394
Li       4.10873467       6.09841861       6.08801784       0.02100668      -0.35820044      -0.29778517
Li       6.05928420       4.13895920       5.95613037      -0.25126697       0.11839262      -0.05200056
Li       6.01286452       6.11195286       4.09684554      -0.07130569      -0.37921638       0.13479008
F        6.12829729       6.12374422       6.05654948      -0.46504186      -0.38064180      -0.44037032
F        4.08738058       6.08439685       4.07124303      -0.05111276       0.28535491      -0.07273445
F        6.16339390       4.03037953       4.05462855       0.01049910       0.04881651      -0.01374512
F        4.07028163       4.13708331       6.11223006       0.00788866      -0.26712605       0.06195562
64
Lattice="28.160000039244697 0.0 0.0 0.0 28.160000039244697 0.0 0.0 0.0 28.160000039244697" Properties=species:S:1:pos:R:3:REF_forces:R:3 config_type=LIF64_ISOLATED REF_energy=-32504.325071243606 pbc="T T T"
Li       0.10519996      -0.01099496       0.11178246       0.64032142       0.78887384       0.66934711
Li      -0.05354748       2.03469294       2.05054694       0.34026725      -0.04406948      -0.04504573
Li       2.12490431       0.03497624       2.03903643      -0.11134831       0.21904796      -0.04347633
Li       2.02124638       2.09328821       0.06387618       0.00625807      -0.17410662       0.08378351
F        1.99118124       2.03367362       1.97135170       0.22730403       0.02703824       0.50962967
F       -0.01694668       2.02366647      -0.00864011      -0.05486066      -0.10984241      -0.00948814
F        2.07360830      -0.00622875       0.04879236      -0.17874438      -0.11251507      -0.05092533
F       -0.05862504      -0.02122287       2.06082125       0.08579668       0.03673387      -0.10946883
Li       4.13548657       0.04205763       0.04252659       0.06254877       0.33027697       0.33530528
Li       4.14907786       2.04613943       2.06485459      -0.09016705      -0.10298528      -0.17437916
Li       6.14066229       0.01289788       2.10794593      -0.49597146       0.38134705      -0.33086318
Li       6.12746583       2.01500346       0.01408837      -0.45705498      -0.22163861       0.40807161
F        6.13961718       2.03219179       2.04631518       0.16779996       0.01980366       0.02195516
F        4.07957701       2.05513010       0.02239187       0.08287771       0.03429466      -0.19183541
F        6.06421293      -0.00283246      -0.00538856      -0.19004258       0.45389535       0.39810910
F        4.11290858      -0.00862790       2.04922016      -0.06308073      -0.10780276       0.24542619
Li       0.00232589       4.03077391      -0.01068407       0.41743660       0.17978747       0.39437611
Li       0.03998719       6.07290689       1.91837815       0.32035894      -0.23573494       0.09534679
Li       2.07966053       4.05623603       2.05823672      -0.16770483       0.03870436      -0.14775024
Li       2.01364712       6.02040029       0.10210283      -0.04371364      -0.17914161       0.17472086
F        2.03584577       6.10196034       2.07272022       0.11709961       0.12960931      -0.10671878
F        0.01744250       6.11656716       0.00850085       0.39750489      -0.48586239       0.34247017
F        2.04386403       4.04555387      -0.02663882       0.07928614       0.10388851      -0.14739209
F        0.02344244       4.07693837       2.00550869      -0.30430600      -0.04837942       0.12800828
Li       4.10793922       4.01324099       0.00676946      -0.11402354       0.13473352       0.18872437
Li       4.13803989       6.14568911       2.07648861      -0.25531954      -0.25342001      -0.20984161
Li       6.05647131       4.12674117       2.00543825      -0.04132071      -0.18290468       0.11000233
Li       6.06082680       6.05352332       0.06063533      -0.80586601      -0.62381879       0.61617053
F        6.09165173       6.05234769       2.05608588       0.14895712       0.29010760      -0.11294239
F        4.08653434       6.19483482       0.02346239       0.16316195      -0.13557427       0.04723734
F        6.09196499       4.09409635      -0.01480741       0.10517200       0.05141589      -0.03874987
F        4.09240388       4.10110898       2.01848592      -0.08095041      -0.19364649       0.11692580
Li       0.04674318       0.03890751       4.08740980       0.21524042       0.33845128       0.14263323
Li       0.04597207       2.02077478       6.16102324       0.14874757      -0.10343625      -0.52836196
Li       2.03208582       0.04275431       6.16945167      -0.18171863       0.28317359      -0.46268775
Li       2.03909257       1.99534201       4.13800331      -0.15785776       0.05592201      -0.19987422
F        2.02074660       2.07555503       6.12146404       0.17642961      -0.15719519       0.18974484
F       -0.04836891       2.06201643       4.09932608       0.01795581       0.04301378      -0.12367032
F        2.03631570      -0.01012843       4.07506557       0.15925670      -0.04846170       0.06829647
F       -0.01950530       0.03875766       6.11511188       0.58933181       0.40023206      -0.29129622
Li       4.10016144       0.00022510       4.12806199      -0.02959905       0.17497797      -0.04893118
Li       4.09565541       2.06876741       6.03847991       0.09608958      -0.00803830       0.03282964
Li       6.14846534       0.02373961       6.09658168      -0.89273150       0.80741870      -0.70483862
Li       6.09773006       2.02864247       4.09087595      -0.13427972       0.07471574      -0.01474631
F        6.06988860       1.99440279       6.11779069       0.16105339      -0.01755498      -0.04719106
F        4.06929454       2.07209490       4.09140250      -0.07989086      -0.10569908      -0.12543255
F        6.11594939       0.00178101       4.08812783       0.10975988      -0.07340782       0.13292526
F        4.11569939      -0.01953794       6.14812140      -0.08494025       0.00820182      -0.08785639
Li       0.03654783       4.09947437       4.01077938       0.10552913       0.06172190       0.12172502
Li       0.10906087       6.02847583       6.12676267       0.58847075      -0.50124890      -0.85273773
Li       2.00194587       4.02974494       6.06807608       0.08489346       0.27141208      -0.12888914
Li       2.03775029       6.03660470       4.07176400      -0.17705799       0.09344520       0.03288929
F        2.02116064       6.12737704       6.11382475       0.10447369      -0.02251695       0.07115477
F        0.01796804       6.19428889       4.10242678      -0.01149540      -0.30121013       0.03920881
F        2.04263785       4.10095646       4.05107542       0.01420920      -0.29225395       0.04404711
F        0.02178391       4.11414013       6.13126195      -0.00251968      -0.07834383       0.06349134
Li       4.04977310       4.09047179       4.01814268       0.06876827       0.03684725       0.16028668
Li       4.10938556       6.10430065       6.09123711       0.01691092      -0.38520859      -0.31325344
Li       6.06475807       4.14541510       5.95875533      -0.25873063       0.11021471      -0.06169156
Li       6.01162013       6.11151247       4.09124896      -0.06148305      -0.38362222       0.15450684
F        6.13688227       6.12173152       6.05737641      -0.48820235      -0.36946392      -0.44561409
F        4.08608265       6.08236425       4.06775083      -0.01842967       0.30572268      -0.05247699
F        6.16442301       4.03500363       4.05490595       0.00092483       0.03411905      -0.02028138
F        4.07024071       4.13768890       6.10612031       0.01321496      -0.26004266       0.08935818
64
Lattice="28.160000039244697 0.0 0.0 0.0 28.160000039244697 0.0 0.0 0.0 28.160000039244697" Properties=species:S:1:pos:R:3:REF_forces:R:3 config_type=LIF64_ISOLATED REF_energy=-32504.34850623162 pbc="T T T"
Li       0.11301340      -0.01240617       0.11299462       0.61554472       0.77575890       0.67011639
Li      -0.05251158       2.03337512       2.04667879       0.33713513      -0.05079086      -0.01197594
Li       2.12461156       0.03942343       2.03570088      -0.10950226       0.20519460      -0.00615136
Li       2.01187246       2.08541887       0.06604039       0.03924069      -0.14466749       0.07228117
F        1.98846554       2.03440628       1.97303967       0.22802883       0.03403292       0.49049861
F       -0.01619601       2.01898676      -0.00919150      -0.05424745      -0.09598597       0.00403432
F        2.07477797      -0.00698331       0.05137170      -0.18904730      -0.10672084      -0.05417160
F       -0.05922857      -0.01683579       2.06654968       0.08106663       0.03025186      -0.14070902
Li       4.13801759       0.04782358       0.04652847       0.05388029       0.31951896       0.32464985
Li       4.15025543       2.04598250       2.06753983      -0.08775484      -0.09608804      -0.16986250
Li       6.14423044       0.00925851       2.09939290      -0.49777174       0.39128591      -0.30675266
Li       6.13095755       2.01617373       0.02112553      -0.45841278      -0.20915590       0.39368989
F        6.14614164       2.03171303       2.04409551       0.13886965       0.01024662       0.01164915
F        4.07797764       2.05612192       0.01999098       0.08690586       0.01587810      -0.16797068
F        6.06142359      -0.00800542      -0.00270342      -0.18286894       0.45670634       0.41100190
F        4.10809142      -0.00625458       2.05404901      -0.03699380      -0.10198152       0.22572615
Li      -0.00048248       4.02600475      -0.00323731       0.42494987       0.20104998       0.37241735
Li       0.04693250       6.06536105       1.92194670       0.29248175      -0.20333904       0.10294748
Li       2.07584095       4.06207968       2.05399563      -0.14454973       0.01979158      -0.13242184
Li       2.01458603       6.02448204       0.10498376      -0.04462407      -0.18586993       0.15909961
F        2.03902732       6.10426049       2.07409568       0.10293283       0.12095292      -0.13351970
F        0.01773770       6.11218736       0.01321129       0.40068766      -0.48659644       0.33968798
F        2.04623688       4.04463195      -0.03015238       0.05858901       0.10046766      -0.12087373
F        0.02550174       4.08145586       2.01277542      -0.30513004      -0.08029195       0.08983254
Li       4.10320005       4.01024669       0.00551143      -0.10170461       0.13324202       0.18604785
Li       4.13949492       6.14543618       2.07360050      -0.23884520      -0.24715809      -0.20131558
Li       6.05753528       4.12744739       2.00570294      -0.03274763      -0.17178132       0.11146786
Li       6.05912409       6.05600691       0.05723551      -0.79901659      -0.63159612       0.62715942
F        6.09648254       6.05666029       2.05798398       0.13114914       0.26715690      -0.12586681
F        4.08723590       6.19763128       0.02309562       0.15999178      -0.13736093       0.04930502
F        6.09224845       4.09077971      -0.01659239       0.09537404       0.06614369      -0.02910514
F        4.09280111       4.10518895       2.02166516      -0.08020248      -0.21586982       0.09537044
Li       0.03868273       0.03705135       4.08623809       0.24095145       0.34848475       0.14892601
Li       0.04693664       2.02092654       6.16148967       0.16124056      -0.10585206      -0.52711266
Li       2.03232407       0.03936789       6.16156341      -0.17669547       0.29945510      -0.45643740
Li       2.03904921       1.99908976       4.13631088      -0.15794647       0.03889771      -0.18348935
F        2.02277120       2.07658352       6.12397893       0.15809019      -0.14366579       0.17296119
F       -0.04773211       2.06280064       4.10142523       0.00979487       0.04899366      -0.12980240
F        2.03534789      -0.01307326       4.07242912       0.15912609      -0.04063166       0.07483581
F       -0.01955691       0.03924051       6.11164320       0.57854526       0.39249638      -0.28876111
Li       4.10079193      -0.00672178       4.12794551      -0.03515778       0.19749569      -0.04228565
Li       4.09789179       2.07701741       6.03795769       0.09176781      -0.02765890       0.04697611
Li       6.14476686       0.01242299       6.10320482      -0.89947936       0.84796216      -0.71813251
Li       6.09468586       2.02349215       4.09301023      -0.11935678       0.07596247      -0.00150075
F        6.06471632       1.99324897       6.11844340       0.18224211      -0.03286513      -0.03830404
F        4.07062114       2.07612663       4.09620905      -0.09174005      -0.11081146      -0.17191964
F        6.11770613       0.00671661       4.08913836       0.10127755      -0.10616959       0.11931744
F        4.11196769      -0.01706675       6.14685248      -0.07508341      -0.02823740      -0.08907561
Li       0.03824251       4.09455159       4.01295478       0.10050082       0.06707597       0.13120442
Li       0.10936091       6.02639170       6.12291995       0.57917133      -0.48755906      -0.85410376
Li       2.00204264       4.03646483       6.06586201       0.08015877       0.25025781      -0.12281800
Li       2.03767931       6.03666893       4.05981136      -0.17847133       0.09731728       0.06237188
F        2.01761856       6.11991100       6.10751782       0.14357837      -0.01182630       0.09046401
F        0.01930451       6.19988804       4.10145887      -0.01123084      -0.31013855       0.02833587
F        2.03891586       4.09986264       4.04878457       0.03322842      -0.28870969       0.04627960
F        0.02280916       4.11812107       6.13143555      -0.01469823      -0.09746306       0.05847203
Li       4.04829833       4.08837394       4.01884000       0.06534973       0.04016140       0.15100886
Li       4.10916457       6.10542854       6.09346732       0.00180697      -0.39513279      -0.32730863
Li       6.06254590       4.15359284       5.94976243      -0.24545859       0.06754365      -0.03550051
Li       6.00807140       6.10805206       4.09888060      -0.05741993      -0.36629401       0.10490101
F        6.13043178       6.12160543       6.05129844      -0.48355251      -0.35301349      -0.42946267
F        4.08033852       6.08401756       4.05920717       0.00739526       0.28712409      -0.00469535
F        6.17130404       4.02961775       4.05326417      -0.01768379       0.06452440      -0.02337416
F        4.07785568       4.13084206       6.10760985      -0.01365950      -0.20014753       0.07174303
64
Lattice="28.160000039244697 0.0 0.0 0.0 28.160000039244697 0.0 0.0 0.0 28.160000039244697" Properties=species:S:1:pos:R:3:REF_forces:R:3 config_type=LIF64_ISOLATED REF_energy=-32504.370877934805 pbc="T T T"
Li       0.11071210      -0.01101448       0.11441181       0.62600500       0.77185777       0.66234240
Li      -0.04366137       2.03321959       2.04504118       0.30729825      -0.03062364      -0.00695021
Li       2.12033412       0.04483080       2.04042342      -0.09950992       0.18985746      -0.04165984
Li       2.00847225       2.09055923       0.06673514       0.04751604      -0.15866869       0.06196179
F        1.98639008       2.03501238       1.96967121       0.24738435       0.02048218       0.52103277
F       -0.01119568       2.02061336      -0.00902673      -0.06014350      -0.10523062      -0.00565463
F        2.07341295      -0.01095610       0.05476908      -0.17808155      -0.10110066      -0.05558442
F       -0.05609010      -0.01451379       2.06430700       0.08388635       0.02378193      -0.12693305
Li       4.13910112       0.04600521       0.04228845       0.03658628       0.33079119       0.34030016
Li       4.15316230       2.04923586       2.06761380      -0.08613453      -0.10507919      -0.18546781
Li       6.13648218       0.01250641       2.10272399      -0.47775031       0.39465791      -0.32232403
Li       6.13127644       2.01428376       0.01746769      -0.46089672      -0.20636677       0.40448235
F        6.14854872       2.04090810       2.03810226       0.12310930      -0.00379778       0.03224678
F        4.07755610       2.05691807       0.02319035       0.07946534       0.02629904      -0.18134402
F        6.05882265      -0.00129133       0.00167291      -0.17038032       0.43786350       0.38878602
F        4.11324198      -0.00373977       2.05572715      -0.06640131      -0.10809072       0.23969135
Li       0.00341670       4.02519343      -0.00091693       0.41021668       0.21828537       0.38165790
Li       0.05531046       6.07456698       1.91758635       0.27244643      -0.23223772       0.11711735
Li       2.08114962       4.05850370       2.05812129      -0.17635197       0.04512466      -0.14178451
Li       2.02204122       6.01972734       0.10857401      -0.06438145      -0.16884640       0.15359436
F        2.03718058       6.10196166       2.07059616       0.12252515       0.13676520      -0.11217183
F        0.01792473       6.11379901       0.01567629       0.40671484      -0.48031601       0.31945211
F        2.04476408       4.04728455      -0.02766241       0.07911002       0.08161890      -0.13549482
F        0.02624718       4.08161803       2.01094060      -0.29774043      -0.09405481       0.09043933
Li       4.09920459       4.01478740       0.00385632      -0.10391139       0.11884924       0.19183001
Li       4.14583563       6.14933417       2.07679802      -0.25876302      -0.24791219      -0.20132098
Li       6.05583460       4.12453440       1.99716172      -0.02071898      -0.16878135       0.13577919
Li       6.05632510       6.04357780       0.05358329      -0.78941892      -0.59648436       0.62795518
F        6.09613372       6.05666441       2.05712916       0.12928998       0.25292945      -0.13132681
F        4.08159387       6.19555753       0.02420274       0.18143889      -0.15141972       0.04264946
F        6.09233120       4.09184296      -0.01686895       0.08422831       0.06588503      -0.04399003
F        4.09041035       4.10492953       2.02429052      -0.06133855      -0.22230041       0.07989806
Li       0.04427325       0.03798427       4.08140118       0.21060677       0.35404193       0.17024122
Li       0.04821238       2.01508765       6.15576717       0.16426855      -0.09514676      -0.51063780
Li       2.04110767       0.03169110       6.15626533      -0.20337143       0.32772978      -0.43445447
Li       2.04528684       1.99248606       4.13160607      -0.17437196       0.07027545      -0.14489838
F        2.02373993       2.07488136       6.12561837       0.16827099      -0.13616202       0.15557591
F       -0.04742853       2.06075445       4.10260184       0.02341812       0.04457753      -0.14576304
F        2.03185009      -0.01218894       4.07600069       0.18806694      -0.05913949       0.04853189
F       -0.01908556       0.04345971       6.11415506       0.58108834       0.36405458      -0.30095020
Li       4.10179802      -0.01893781       4.12654876      -0.03000477       0.22836975      -0.04172669
Li       4.09055165       2.07381065       6.04300635       0.09350022      -0.00860445       0.03782967
Li       6.14226690       0.01595607       6.10530652      -0.89094818       0.85238523      -0.71919412
Li       6.08435329       2.02024574       4.09037672      -0.09583247       0.09332950       0.00834914
F        6.06330963       1.99023576       6.11593194       0.18762522      -0.02861921      -0.01948228
F        4.07219066       2.07445822       4.09928650      -0.10668921      -0.11096264      -0.20415408
F        6.11544730       0.01288717       4.08569058       0.09777494      -0.13142785       0.12733620
F        4.10862075      -0.01406682       6.14598884      -0.06809387      -0.05795652      -0.09198224
Li       0.04367651       4.09172904       4.01098715       0.08125329       0.08087739       0.12781288
Li       0.11190731       6.02513281       6.11878366       0.55815693      -0.48586779      -0.84894253
Li       1.99986124       4.04356831       6.07033695       0.07805226       0.22765704      -0.13054493
Li       2.04154807       6.03682489       4.06011776      -0.18933475       0.08961966       0.06212377
F        2.01508907       6.11542885       6.10728205       0.16381167      -0.00595545       0.09175830
F        0.01863888       6.19438757       4.10231202       0.00115468      -0.28939026       0.02372871
F        2.03691260       4.09806104       4.04266025       0.05651748      -0.29610572       0.06920047
F        0.02241694       4.12089578       6.13470425      -0.00717621      -0.11581534       0.05005141
Li       4.04662279       4.08395889       4.01282333       0.06687645       0.05977763       0.18501376
Li       4.12206069       6.09853433       6.09875210      -0.01874488      -0.38930667      -0.33707574
Li       6.07250735       4.14569635       5.94998961      -0.27519108       0.06932311      -0.04175806
Li       6.00979603       6.10466680       4.09984934      -0.06850807      -0.36899830       0.10149738
F        6.12788898       6.12250410       6.05124182      -0.46972975      -0.36308373      -0.42255643
F        4.07662499       6.08448288       4.05729341       0.03328396       0.27957867      -0.00006248
F        6.17359705       4.03001010       4.05603971      -0.02470624       0.06215308      -0.03613068
F        4.07647098       4.12839303       6.10870227       0.00367745      -0.19494567       0.07205388
64
Lattice="28.160000039244697 0.0 0.0 0.0 28.160000039244697 0.0 0.0 0.0 28.160000039244697" Properties=species:S:1:pos:R:3:REF_forces:R:3 config_type=LIF64_ISOLATED REF_energy=-32504.395540700458 pbc="T T T"
Li       0.11594661      -0.00980683       0.12225443       0.60078736       0.76083493       0.63669539
Li      -0.04304237       2.03644380       2.04247783       0.30007242      -0.03650144      -0.00716978
Li       2.11837557       0.04443075       2.03792442      -0.09490919       0.19081879      -0.03085812
Li       2.00762317       2.09121863       0.06011774       0.05412095      -0.16064484       0.06949486
F        1.99196146       2.03565936       1.96398658       0.21744848       0.01853585       0.52359616
F       -0.01301612       2.02108731      -0.01285220      -0.04133074      -0.09146108       0.01184456
F        2.06756139      -0.01619589       0.05650527      -0.15233375      -0.08910441      -0.05401425
F       -0.05661495      -0.01182733       2.06453885       0.09006780       0.03226220      -0.11666252
Li       4.14241749       0.04296701       0.04974042       0.03002946       0.33724080       0.32286088
Li       4.15034891       2.04710861       2.07426686      -0.07463527      -0.08974358      -0.20574996
Li       6.13181297       0.01356075       2.10666818      -0.46406792       0.40446872      -0.34209350
Li       6.13152149       2.01648381       0.01517094      -0.46050283      -0.20301276       0.41934050
F        6.14559546       2.03984935       2.04038862       0.12269304      -0.01982860       0.03187731
F        4.07953840       2.06025267       0.01891002       0.06790875      -0.00927063      -0.17997979
F        6.05837977      -0.00235269       0.00346135      -0.17484684       0.43350368       0.39605402
F        4.10835705      -0.00688747       2.05922396      -0.03849224      -0.11135962       0.22125783
Li       0.01056014       4.03002406      -0.00357539       0.38703973       0.20934796       0.37572199
Li       0.06145351       6.06872037       1.91687862       0.25813413      -0.21032344       0.12234414
Li       2.07777042       4.04709860       2.05858188      -0.15676119       0.07534978      -0.14053059
Li       2.01965198       6.01783703       0.10844613      -0.04988557      -0.15959454       0.15782845
F        2.03790658       6.10073185       2.07631684       0.12528651       0.14031358      -0.14021203
F        0.01466862       6.11893129       0.01127623       0.43056491      -0.50543492       0.34345516
F        2.04315494       4.04842695      -0.02517503       0.06296477       0.07993637      -0.14515266
F        0.02476038       4.08240792       2.01659791      -0.29151553      -0.10620327       0.05273101
Li       4.10534511       4.00897971       0.00260413      -0.11478022       0.12715159       0.19333462
Li       4.14609905       6.14791800       2.08075708      -0.29272292      -0.24938698      -0.22655841
Li       6.05073817       4.13861937       2.00205032      -0.00486273      -0.24061129       0.11877520
Li       6.04351048       6.04530485       0.05592868      -0.76474558      -0.59772955       0.59941928
F        6.09400700       6.05426596       2.05483180       0.11739271       0.28266862      -0.10861137
F        4.08128789       6.19521451       0.01911260       0.17496923      -0.14616233       0.06009491
F        6.09314799       4.09205967      -0.01874208       0.07882514       0.07292446      -0.03604738
F        4.08940833       4.10254520       2.01935392      -0.05596495      -0.19641171       0.11370524
Li       0.05155047       0.04655626       4.08008248       0.19150708       0.33827387       0.17437427
Li       0.04641590       2.01121166       6.16295129       0.17640776      -0.08875345      -0.51714758
Li       2.05067282       0.03139613       6.15655752      -0.21707824       0.33106733      -0.43196359
Li       2.04530619       1.99186388       4.13537549      -0.16911662       0.07262389      -0.14760600
F        2.02534179       2.07698554       6.12584224       0.17819030      -0.15174419       0.15345578
F       -0.04658252       2.06187184       4.10473992       0.02620983       0.03642225      -0.15373063
F        2.03472088      -0.00601661       4.06991240       0.17614139      -0.07127921       0.07782061
F       -0.01830346       0.04322821       6.11953533       0.59567627       0.37211885      -0.31156217
Li       4.11133341      -0.02038095       4.12520116      -0.07217909       0.23158852      -0.04829303
Li       4.09644151       2.06930616       6.04742961       0.07802270      -0.00381192       0.02641551
Li       6.14450385       0.01536800       6.09745923      -0.88292428       0.84489561      -0.68547256
Li       6.08017760       2.01203952       4.09750870      -0.08293736       0.13245964      -0.01938072
F        6.06545596       1.98600781       6.12099681       0.17364665      -0.02892748      -0.03896687
F        4.07333843       2.07216504       4.09214824      -0.10593254      -0.09230517      -0.14230259
F        6.11040529       0.01471449       4.08893549       0.11431433      -0.15169200       0.12150185
F        4.11065488      -0.01346938       6.14618685      -0.07639673      -0.05950947      -0.09772017
Li       0.04029327       4.09096341       4.00847804       0.08787079       0.08345415       0.14252448
Li       0.11409816       6.02626655       6.11646045       0.54689447      -0.49380787      -0.84549468
Li       2.00334222       4.04406055       6.06327075       0.05828254       0.21320744      -0.11263129
Li       2.03911599       6.04180197       4.07071579      -0.20215144       0.07147975       0.01890918
F        2.01671293       6.11618844       6.10415175       0.17705748      -0.00130972       0.08584425
F        0.02024386       6.19317887       4.09959969      -0.00314137      -0.27928865       0.04296750
F        2.03369981       4.09738831       4.03989544       0.09198816      -0.29379739       0.09139269
F        0.02700288       4.12205740       6.13306295      -0.01727010      -0.10995117       0.05669668
Li       4.04545901       4.09076911       4.01471813       0.05970950       0.01681553       0.15906875
Li       4.12187918       6.09457060       6.09434348      -0.01651934      -0.36856147      -0.30775025
Li       6.06475244       4.15149450       5.94737301      -0.24059201       0.06157869      -0.02429461
Li       6.00240528       6.10600462       4.09770180      -0.02666491      -0.36248389       0.11597012
F        6.12941038       6.12454003       6.05211542      -0.49485405      -0.36885792      -0.44171269
F        4.07705362       6.08357230       4.05629985       0.03602090       0.27313857       0.01760743
F        6.17445186       4.02784660       4.05783751      -0.05027124       0.08475230      -0.03457620
F        4.07726853       4.12606610       6.11500035       0.00414153      -0.18036803       0.03926589
64
Lattice="28.160000039244697 0.0 0.0 0.0 28.160000039244697 0.0 0.0 0.0 28.160000039244697" Properties=species:S:1:pos:R:3:REF_forces:R:3 config_type=LIF64_ISOLATED REF_energy=-32504.397909587482 pbc="T T T"
Li       0.11014905      -0.00856903       0.12764553       0.62295618       0.74727134       0.61827266
Li      -0.04269529       2.03043979       2.04266962       0.29158727      -0.01793524       0.00380498
Li       2.11711562       0.05363336       2.04275351      -0.08673617       0.14998530      -0.04215812
Li       2.00695242       2.08977016       0.06275229       0.05339050      -0.16386540       0.04837968
F        1.99268268       2.03319172       1.96317725       0.19844314       0.02408995       0.52570601
F       -0.01166011       2.02088093      -0.01521266      -0.04452071      -0.09933688       0.03196164
F        2.07109247      -0.01683590       0.05417650      -0.16525663      -0.06386389      -0.03884166
F       -0.05405995      -0.01325572       2.06662526       0.08495156       0.05321515      -0.12242308
Li       4.14159695       0.04906745       0.05250105       0.03637263       0.30237793       0.30844290
Li       4.15544430       2.03782726       2.06272940      -0.07056881      -0.05331671      -0.16366409
Li       6.12956197       0.01170007       2.10410252      -0.44133063       0.40958059      -0.34292371
Li       6.12380834       2.02096485       0.00565274      -0.41776338      -0.21227311       0.44244546
F        6.14806865       2.03806642       2.03716547       0.09983645      -0.02122600       0.03522617
F        4.08137849       2.06795112       0.02209314       0.07212947      -0.05779660      -0.19915225
F        6.06239227      -0.00121363       0.00083955      -0.20848638       0.44580435       0.38969388
F        4.10996317      -0.00759588       2.05581096      -0.04508481      -0.09269650       0.22285859
Li       0.01430556       4.02225708       0.00126817       0.37624315       0.22188157       0.36547074
Li       0.06151811       6.06917283       1.91706074       0.26145728      -0.21083586       0.12794144
Li       2.07361301       4.04710051       2.05141431      -0.12696879       0.08947850      -0.10528333
Li       2.01194114       6.01818994       0.10765378      -0.02694722      -0.16113412       0.16400681
F        2.03636191       6.09605008       2.07445406       0.11544845       0.14759701      -0.13841740
F        0.01682026       6.12090647       0.01614069       0.42418908      -0.50723906       0.32500492
F        2.04703498       4.04517522      -0.02671054       0.03444841       0.07612985      -0.13978265
F        0.02278021       4.08354684       2.01749622      -0.28501630      -0.12993533       0.03484796
Li       4.10831559       4.00042921      -0.00211039      -0.12586784       0.17895187       0.21330000
Li       4.15033101       6.14357206       2.07686919      -0.31034218      -0.24596690      -0.20758187
Li       6.04760806       4.13887493       2.00296697       0.00649743      -0.24561748       0.12304631
Li       6.04324315       6.04057269       0.05120315      -0.76649599      -0.58513551       0.61017754
F        6.09174125       6.05514678       2.05574530       0.13575579       0.27769457      -0.11567727
F        4.08051963       6.18954526       0.02101904       0.17860040      -0.13889511       0.04560237
F        6.09613491       4.09569724      -0.01827977       0.06988721       0.05132745      -0.05349669
F        4.09206563       4.09827409       2.02237485      -0.06988541      -0.19756434       0.09327499
Li       0.05552199       0.05480251       4.08141982       0.18174408       0.31349615       0.18099821
Li       0.04919137       2.00700603       6.16425540       0.16182729      -0.06386106      -0.51708818
Li       2.04980267       0.02763265       6.16655774      -0.20455157       0.33373099      -0.45317030
Li       2.04608191       1.99538017       4.13555755      -0.16276343       0.07650317      -0.14212158
F        2.02875833       2.08382814       6.12856579       0.16143725      -0.20004082       0.15478478
F       -0.05107873       2.06395326       4.10778929       0.04633154       0.01515151      -0.17251485
F        2.03524185      -0.00740809       4.07161164       0.17186436      -0.04767494       0.07670475
F       -0.01820909       0.04368456       6.11928616       0.60912982       0.37535921      -0.29924427
Li       4.11483297      -0.01638206       4.12812110      -0.07978236       0.21682756      -0.04174572
Li       4.08828556       2.07528876       6.04818598       0.09089312      -0.01106474       0.03180043
Li       6.14986813       0.02497779       6.09914014      -0.89089213       0.81950417      -0.68543322
Li       6.07278468       2.00953156       4.10323682      -0.06551865       0.13701640      -0.04751013
F        6.06348172       1.98417936       6.11993378       0.17465272      -0.00749142      -0.03763915
F        4.06839882       2.07185041       4.09425966      -0.08919774      -0.10293746      -0.15148863
F        6.11017196       0.01253560       4.08632725       0.10853012      -0.13576967       0.13082904
F        4.11376704      -0.01285561       6.14697162      -0.09276643      -0.05459995      -0.09061030
Li       0.04156806       4.09209050       4.00629248       0.08919748       0.08645103       0.16453209
Li       0.10524297       6.03238596       6.11423940       0.58821184      -0.52614849      -0.84247826
Li       2.00414626       4.03617017       6.06410457       0.04372675       0.26713248      -0.11922437
Li       2.03229729       6.04772742       4.07411980      -0.16995506       0.04475725       0.01858496
F        2.01853054       6.11739455       6.10363068       0.14599624       0.01330109       0.09188686
F        0.02298371       6.18850106       4.10391778      -0.02913651      -0.24835597       0.02727118
F        2.03054325       4.10023264       4.04213788       0.09930295      -0.32247187       0.06428581
F        0.02640301       4.12217984       6.13006838      -0.02425553      -0.10680414       0.07184382
Li       4.04585068       4.08686618       4.01230538       0.04577052       0.05031238       0.15608987
Li       4.11577987       6.09180961       6.09199109      -0.01297996      -0.35567278      -0.31644829
Li       6.06703889       4.14860746       5.94334086      -0.25471276       0.08750775      -0.01888912
Li       6.00761065       6.10877907       4.09462932      -0.05994218      -0.36171153       0.12741410
F        6.12754142       6.12551306       6.04958553      -0.47757033      -0.38086857      -0.43909146
F        4.07747950       6.08525278       4.05647790       0.03698660       0.26599116       0.00104027
F        6.17350494       4.02612606       4.05631660      -0.04763071       0.07371173      -0.02618540
F        4.07080088       4.13091696       6.11432417       0.03512950      -0.22203121       0.04275385
64
Lattice="28.160000039244697 0.0 0.0 0.0 28.160000039244697 0.0 0.0 0.0 28.160000039244697" Properties=species:S:1:pos:R:3:REF_forces:R:3 config_type=LIF64_ISOLATED REF_energy=-32504.405582925618 pbc="T T T"
Li       0.12095836      -0.00633249       0.13734366       0.59557008       0.74372064       0.58068519
Li      -0.03840716       2.02982536       2.05116680       0.27712687      -0.01131183      -0.02637412
Li       2.12037721       0.05248010       2.04195026      -0.09024109       0.14701594      -0.04568953
Li       2.00712732       2.08674378       0.07452522       0.04556175      -0.14661356      -0.02451804
F        1.99264218       2.03432720       1.95810005       0.19319681      -0.00601947       0.59042556
F       -0.00691144       2.01830009      -0.01357186      -0.05960897      -0.09094840       0.05503806
F        2.07200680      -0.01579963       0.05260355      -0.14508812      -0.07062023      -0.00119633
F       -0.05087183      -0.01612969       2.06914386       0.09721264       0.06071969      -0.10440119
Li       4.14635151       0.05954434       0.06357965       0.01523893       0.28308926       0.26107084
Li       4.15381653       2.03826152       2.06087962      -0.06090069      -0.02278152      -0.14737975
Li       6.11959939       0.01282630       2.09620790      -0.41214141       0.39348677      -0.31080601
Li       6.13891451       2.02002180       0.00548316      -0.45585993      -0.19873522       0.44701791
F        6.14410850       2.03649753       2.04062098       0.12139926      -0.02600645       0.01681501
F        4.07818022       2.06950168       0.02405785       0.10056022      -0.08191638      -0.18799572
F        6.06064035      -0.00168771       0.00024145      -0.19078305       0.46051106       0.39988753
F        4.11489611      -0.01176069       2.06022834      -0.07653120      -0.08160296       0.20184291
Li       0.01465209       4.03235666       0.00502332       0.38905779       0.18574395       0.34615919
Li       0.06131941       6.06433295       1.90797189       0.27807766      -0.19232006       0.16253537
Li       2.06799214       4.03965128       2.05422150      -0.10328713       0.13167262      -0.11782723
Li       2.00967993       6.02219307       0.10131450      -0.01106680      -0.18506852       0.19408255
F        2.03419012       6.09850689       2.07578031       0.11811905       0.15397488      -0.16910223
F        0.01869250       6.11843399       0.01093743       0.41686838      -0.50518989       0.31258367
F        2.04864642       4.03968054      -0.02659555       0.02199784       0.11681859      -0.14443866
F        0.02860766       4.09041033       2.01692954      -0.30942095      -0.16543995       0.03695652
Li       4.10432569       4.00094783      -0.00593503      -0.13192613       0.17051839       0.22904313
Li       4.15634579       6.14149012       2.07312672      -0.35332717      -0.24807495      -0.19288879
Li       6.04558785       4.13919808       2.00602148      -0.01499956      -0.24532464       0.11952930
Li       6.03535411       6.03861711       0.04860505      -0.75356977      -0.57760347       0.60955585
F        6.08430801       6.05882631       2.05351529       0.16910120       0.27016432      -0.10915850
F        4.08129846       6.18515118       0.02232689       0.16277423      -0.12415523       0.02271852
F        6.09267522       4.09835734      -0.01571391       0.09049306       0.02997623      -0.05971850
F        4.08624593       4.09738546       2.02229587      -0.04655445      -0.19858944       0.09440808
Li       0.06411736       0.05176139       4.07674736       0.15042419       0.31270297       0.20548951
Li       0.04597375       2.01298388       6.16469956       0.17612854      -0.08754143      -0.50233699
Li       2.05376972       0.01829521       6.15876257      -0.20982104       0.36699258      -0.42028049
Li       2.03805324       1.99513351       4.13713872      -0.13295483       0.08628417      -0.11815659
F        2.02631011       2.07739344       6.13131765       0.17267580      -0.14690204       0.13407583
F       -0.04784269       2.06781364       4.10992579       0.04568953       0.00001080      -0.20252117
F        2.03550920      -0.00241648       4.06941990       0.16978254      -0.07106838       0.06800285
F       -0.02179356       0.04405815       6.12359847       0.61699740       0.37023217      -0.33198778
Li       4.11035430      -0.01127616       4.12097142      -0.05174088       0.21677845      -0.01133728
Li       4.09359247       2.07721586       6.05032644       0.06686488      -0.02162272       0.02126302
Li       6.15446098       0.02442056       6.10389813      -0.91157897       0.81254650      -0.69974244
Li       6.07964262       2.00225629       4.10942950      -0.09930089       0.14960067      -0.06333887
F        6.06080015       1.98676182       6.11824507       0.20765900      -0.01924394      -0.03471709
F        4.06808476       2.06892251       4.09350431      -0.09491382      -0.09769421      -0.15042933
F        6.11009888       0.00401222       4.08864365       0.11051913      -0.10860340       0.13188191
F        4.11072796      -0.00856069       6.14984412      -0.08357397      -0.06972935      -0.09892037
Li       0.03942581       4.09141991       4.01122219       0.09991821       0.11230759       0.15703810
Li       0.09674908       6.02801424       6.11463086       0.60977825      -0.51936027      -0.85166661
Li       2.00953363       4.03957238       6.05802510       0.02957617       0.24934738      -0.10643030
Li       2.03629539       6.05374281       4.07390815      -0.18945945       0.03516832       0.00255876
F        2.01598484       6.11879643       6.10564032       0.14308806      -0.00342805       0.09085070
F        0.02553617       6.18662273       4.10313793      -0.04970225      -0.24573370       0.04644981
F        2.03059433       4.10221230       4.04028333       0.09575482      -0.34280364       0.09026603
F        0.02156561       4.11794321       6.12561794      -0.01595627      -0.09701852       0.07577324
Li       4.04110171       4.08992038       4.01180229       0.06348619       0.03829555       0.14969554
Li       4.11264124       6.09172891       6.08752855       0.00149561      -0.35116975      -0.31552475
Li       6.07365090       4.15593880       5.94409671      -0.27237161       0.08747973      -0.03579156
Li       6.01590053       6.10509513       4.08887334      -0.09467162      -0.36000638       0.14144384
F        6.13495678       6.12387989       6.04674136      -0.47338097      -0.37024348      -0.44114165
F        4.07445886       6.08212171       4.05785212       0.05675196       0.28711792      -0.00040752
F        6.16775704       4.03262131       4.05221419      -0.01419557       0.05499281      -0.02164252
F        4.07837240       4.13532187       6.11162902      -0.00001774      -0.23677880       0.05272407
64
Lattice="28.160000039244697 0.0 0.0 0.0 28.160000039244697 0.0 0.0 0.0 28.160000039244697" Properties=species:S:1:pos:R:3:REF_forces:R:3 config_type=LIF64_ISOLATED REF_energy=-32504.39288622996 pbc="T T T"
Li       0.13323746      -0.00800995       0.13326109       0.55447331       0.74618222       0.59977846
Li      -0.03362790       2.03194083       2.05468851       0.25740908      -0.01777815      -0.04213807
Li       2.12325564       0.06034437       2.04174808      -0.10059750       0.12894571      -0.03353696
Li       2.00465369       2.08478159       0.07363980       0.05204504      -0.12239685      -0.01891432
F        1.99414248       2.03638147       1.95694551       0.17794991      -0.02267816       0.59783651
F       -0.00575933       2.01962667      -0.01520428      -0.04169815      -0.09660097       0.05278398
F        2.07245635      -0.01605842       0.05483624      -0.13219481      -0.07114011      -0.00761072
F       -0.05533921      -0.01506355       2.07108412       0.11773827       0.06917553      -0.11604494
Li       4.14179061       0.05699952       0.06684644       0.05019668       0.28564185       0.24225680
Li       4.16420232       2.03544692       2.05924121      -0.09231983      -0.00004782      -0.13786435
Li       6.11340863       0.01435288       2.09804594      -0.37933799       0.37803341      -0.32388495
Li       6.13888876       2.03005276       0.00937418      -0.45294584      -0.23283345       0.43110741
F        6.14488815       2.03262371       2.03807233       0.11489720      -0.01288020       0.02116892
F        4.07497512       2.07252831       0.02688128       0.11074795      -0.09830150      -0.19295795
F        6.06326292      -0.00394099      -0.00559156      -0.22400968       0.47758730       0.41446003
F        4.11824351      -0.01696218       2.05849562      -0.08227890      -0.06792135       0.20956882
Li       0.02324365       4.03568050      -0.00113104       0.37689338       0.19241802       0.36829459
Li       0.05170194       6.07634309       1.91925980       0.32486120      -0.23478646       0.11025096
Li       2.06981785       4.03679434       2.06199847      -0.10881526       0.15197122      -0.14260804
Li       2.01460433       6.02222963       0.08970871      -0.03549408      -0.19665648       0.24318522
F        2.03552959       6.09788097       2.07690616       0.10866305       0.17277093      -0.17118379
F        0.01926192       6.11269598       0.01023529       0.41233887      -0.47916518       0.31674371
F        2.04757896       4.04089923      -0.02727635       0.03924018       0.11344607      -0.16561170
F        0.03248321       4.09518636       2.01840791      -0.32297118      -0.18045416       0.05904230
Li       4.10221898       4.00350629      -0.01223313      -0.14546967       0.16416339       0.24691949
Li       4.15818242       6.14491300       2.07025568      -0.37875332      -0.25450116      -0.17926271
Li       6.04300276       4.14437510       1.99407818      -0.01713537      -0.26818637       0.16118786
Li       6.04220572       6.04081296       0.05398470      -0.76932086      -0.57980587       0.59451361
F        6.08102205       6.05550466       2.05409917       0.20118574       0.29348088      -0.12764499
F        4.08398671       6.18484837       0.01881009       0.16891376      -0.12178262       0.01880196
F        6.09002042       4.09475701      -0.01359561       0.10870958       0.04841182      -0.06818128
F        4.08738621       4.09891518       2.02176949      -0.04200103      -0.20154955       0.09295078
Li       0.06212742       0.05087134       4.08163096       0.14823387       0.30333721       0.18544981
Li       0.04064697       2.01523147       6.15659293       0.18071024      -0.09276797      -0.48503578
Li       2.05417955       0.01393599       6.15680382      -0.21735335       0.37007225      -0.40792377
Li       2.03275690       1.99249657       4.14289137      -0.11006404       0.09569337      -0.13244627
F        2.02186130       2.07940234       6.13226792       0.17862045      -0.16552994       0.12886112
F       -0.05231878       2.06399197       4.11535862       0.05626911       0.01305503      -0.21681085
F        2.03642913      -0.00505911       4.06359784       0.17429791      -0.06222558       0.09156727
F       -0.01686294       0.04199878       6.12266051       0.61154794       0.36273432      -0.33414931
Li       4.10989276      -0.01343707       4.11970805      -0.04892398       0.23000240      -0.00567880
Li       4.08151709       2.07837130       6.05605812       0.10645910      -0.01082512       0.00224560
Li       6.14927000       0.02008487       6.10390223      -0.90045355       0.83738465      -0.69570761
Li       6.07879235       2.00239076       4.10678436      -0.09664957       0.16461719      -0.03476491
F        6.06085053       1.99140297       6.11884775       0.19242239      -0.03813177      -0.02833973
F        4.06493304       2.06897058       4.09473374      -0.08478084      -0.11386979      -0.15972104
F        6.11526704       0.00614788       4.08969969       0.07920078      -0.11654399       0.13207911
F        4.11090963      -0.00772616       6.15630976      -0.09345549      -0.07631086      -0.11956787
Li       0.03835498       4.09588746       4.00938723       0.10206380       0.10100090       0.15576823
Li       0.08926519       6.03074107       6.11110432       0.63926675      -0.52877025      -0.83995986
Li       2.00384465       4.03610711       6.04979341       0.04331126       0.26882683      -0.08888124
Li       2.03313570       6.06168345       4.07457304      -0.16570271       0.01207519       0.00062966
F        2.01937316       6.12074006       6.10529102       0.10899780      -0.00571505       0.08037191
F        0.02482157       6.18836122       4.10570571      -0.06234411      -0.22995381       0.03457568
F        2.02856056       4.09804930       4.04311377       0.09367506      -0.31453205       0.08453839
F        0.01794929       4.11743906       6.12072853      -0.02303400      -0.08013640       0.07401255
Li       4.04332746       4.09976223       4.00766627       0.06468073       0.00735207       0.16510108
Li       4.11633562       6.09088193       6.08882868      -0.00688876      -0.35807419      -0.32007458
Li       6.07217885       4.14785680       5.95414214      -0.27242663       0.07742183      -0.06541606
Li       6.02344883       6.10213270       4.09010053      -0.11663038      -0.37458299       0.15046970
F        6.13508323       6.12007193       6.04593643      -0.47184191      -0.35854111      -0.42992264
F        4.07260245       6.08576050       4.05320488       0.07686082       0.27994685       0.01948305
F        6.17196708       4.03223549       4.05625981      -0.02689245       0.05997612      -0.04423943
F        4.07834368       4.13231112       6.11387430      -0.01009595      -0.21974756       0.05007892
64
Lattice="28.160000039244697 0.0 0.0 0.0 28.160000039244697 0.0 0.0 0.0 28.160000039244697" Properties=species:S:1:pos:R:3:REF_forces:R:3 config_type=LIF64_ISOLATED REF_energy=-32504.392896162117 pbc="T T T"
Li       0.13447538       0.00027180       0.13171216       0.55102623       0.71242260       0.60339446
Li      -0.02354477       2.03932057       2.04838956       0.22842375      -0.06508105      -0.01797407
Li       2.13147518       0.05989336       2.04235723      -0.13341069       0.11353812      -0.04120347
Li       1.99655956       2.09055167       0.07456931       0.08047039      -0.14975390      -0.03615845
F        1.99294688       2.03473989       1.95790893       0.16966350      -0.00367205       0.58881888
F       -0.00373287       2.01346772      -0.02105122      -0.03809218      -0.05202010       0.07520348
F        2.07102427      -0.02008898       0.05258162      -0.10747571      -0.05100734       0.00093588
F       -0.05411022      -0.01761390       2.06942281       0.11812522       0.09206760      -0.11627608
Li       4.14785197       0.05253704       0.06646772       0.01434727       0.29080385       0.23664742
Li       4.17029221       2.02885205       2.05461550      -0.10841802       0.02038216      -0.10922535
Li       6.11233429       0.01471362       2.09837409      -0.37009513       0.36163312      -0.30920292
Li       6.13978294       2.02436973       0.01037125      -0.44841479      -0.21624263       0.42435209
F        6.14808679       2.02938456       2.04292356       0.11296116      -0.00402480       0.00261635
F        4.07451642       2.07765777       0.02976819       0.12649853      -0.14547764      -0.19079848
F        6.06317486      -0.00123928      -0.00291437      -0.21680133       0.47517869       0.40769674
F        4.11682366      -0.01717518       2.05746795      -0.07371353      -0.06007614       0.20566408
Li       0.02400196       4.03636141       0.00525075       0.37782747       0.21050316       0.33859500
Li       0.04733968       6.08215768       1.91927888       0.34312452      -0.23449592       0.11881505
Li       2.06787584       4.03224437       2.06108660      -0.08571081       0.18129311      -0.13769466
Li       2.01814779       6.03603917       0.09243944      -0.03140114      -0.22773161       0.24441344
F        2.03748922       6.10131732       2.07852321       0.08986597       0.16414437      -0.19233291
F        0.01599573       6.11194439       0.01082996       0.41964003      -0.47702217       0.32577625
F        2.05257337       4.04069488      -0.02974800       0.00068006       0.11680162      -0.14734272
F        0.03631131       4.09782314       2.02021909      -0.32664297      -0.20468681       0.02399893
Li       4.09596365       3.99601692      -0.01015638      -0.13303633       0.19773737       0.23887811
Li       4.16034608       6.14165617       2.06986868      -0.38304912      -0.24093808      -0.18328752
Li       6.04469315       4.14105717       1.99006151      -0.02360967      -0.24718740       0.17388216
Li       6.04484958       6.03278416       0.05573140      -0.77239950      -0.55724444       0.58971388
F        6.08223714       6.05550168       2.05540323       0.19290447       0.27000646      -0.12530837
F        4.08631491       6.18426749       0.01679937       0.16052091      -0.11773287       0.02651296
F        6.09244559       4.09512012      -0.01009279       0.10765029       0.02190580      -0.06617505
F        4.08315701       4.09831507       2.02131589      -0.01903670      -0.20725405       0.10349796
Li       0.06248300       0.05145265       4.08112158       0.13155486       0.29764941       0.17878963
Li       0.04057322       2.01562262       6.15824996       0.17386417      -0.08702490      -0.47951820
Li       2.05713215       0.01629447       6.14902197      -0.22917142       0.36634518      -0.39490499
Li       2.02487029       1.99750341       4.14285757      -0.09202415       0.08440417      -0.11632031
F        2.02237310       2.08189160       6.13146676       0.17422155      -0.17667284       0.12535953
F       -0.05243997       2.06623327       4.11317549       0.06587758       0.01965403      -0.22938894
F        2.02980363      -0.00758932       4.06678963       0.20416487      -0.04691878       0.08801812
F       -0.02525152       0.04364557       6.12441803       0.62484183       0.37322596      -0.34418895
Li       4.11167719      -0.00847811       4.12266364      -0.04568876       0.22675639      -0.00621513
Li       4.08648887       2.07649556       6.05427085       0.08973896       0.01019648      -0.00537721
Li       6.14270941       0.02900431       6.10764716      -0.88589468       0.80842400      -0.70106501
Li       6.09611649       2.00524701       4.09987989      -0.13908820       0.15894071      -0.01711712
F        6.06240979       1.98725311       6.11542659       0.20565200      -0.02858141      -0.01804837
F        4.06279542       2.07043245       4.09825762      -0.07800958      -0.12242693      -0.19094709
F        6.11515572       0.00240753       4.08499306       0.07759744      -0.09780014       0.13786512
F        4.11195960      -0.00888026       6.15504841      -0.09401753      -0.06865977      -0.11882688
Li       0.03103731       4.09370520       3.99781732       0.10679026       0.11536051       0.20986758
Li       0.09306724       6.04155854       6.11809474       0.62162307      -0.58068442      -0.86020241
Li       2.00207419       4.04124282       6.04999362       0.03328036       0.24152300      -0.08190532
Li       2.03111764       6.04660628       4.07627065      -0.17253825       0.06477637      -0.01949950
F        2.01968390       6.11826168       6.10381862       0.11079629       0.01418606       0.09878358
F        0.02238995       6.18259824       4.10375030      -0.06848725      -0.21134828       0.03537864
F        2.02507225       4.10651639       4.04919877       0.09936285      -0.36910371       0.04239055
F        0.01522408       4.11528922       6.12284058      -0.01432182      -0.04851389       0.08129623
Li       4.03853291       4.10540579       4.00683818       0.07666670      -0.02563338       0.17658516
Li       4.10343406       6.09422873       6.08743354       0.01908633      -0.37242635      -0.31841647
Li       6.08123787       4.15069779       5.95589063      -0.29800088       0.08333485      -0.06905263
Li       6.01824709       6.09644977       4.09484324      -0.09822977      -0.35872468       0.13896067
F        6.13998647       6.12123530       6.04497058      -0.48676794      -0.36238336      -0.43111024
F        4.06769980       6.08599447       4.05043190       0.09775771       0.27163011       0.03974746
F        6.17698789       4.03061757       4.05901357      -0.02728198       0.06282876      -0.05977121
F        4.07991559       4.13428767       6.11295063      -0.00577624      -0.20910242       0.05240191
64
Lattice="28.160000039244697 0.0 0.0 0.0 28.160000039244697 0.0 0.0 0.0 28.160000039244697" Properties=species:S:1:pos:R:3:REF_forces:R:3 config_type=LIF64_ISOLATED REF_energy=-32504.366232815526 pbc="T T T"
Li       0.14454182       0.00668899       0.13101365       0.50830298       0.70401124       0.60054028
Li      -0.02540589       2.04339446       2.04271932       0.22496021      -0.06456400      -0.00094874
Li       2.12761308       0.05581677       2.03928878      -0.11221734       0.13423370      -0.03167753
Li       1.99797675       2.08987645       0.07173865       0.08301964      -0.14105689      -0.01088759
F        1.99038360       2.03587441       1.95904337       0.18693308      -0.00812109       0.58125778
F       -0.00462540       2.01880894      -0.02128296      -0.02497724      -0.06300771       0.06189340
F        2.06848903      -0.01845830       0.05276381      -0.09743427      -0.05281200      -0.00786423
F       -0.05964744      -0.01283134       2.06832559       0.13846393       0.07859220      -0.12153605
Li       4.15457084       0.05815084       0.06095375      -0.00919092       0.28598638       0.27030650
Li       4.17446554       2.03112120       2.06218328      -0.11635784       0.00533812      -0.13934248
Li       6.11804077       0.01500246       2.09991551      -0.39909435       0.35057094      -0.30414273
Li       6.15671860       2.01619166       0.00765148      -0.48808074      -0.19544241       0.44494971
F        6.14942776       2.03059977       2.04224588       0.14035806      -0.01937558       0.01184996
F        4.07224789       2.07415668       0.03648311       0.13858632      -0.14740880      -0.21470897
F        6.06134167      -0.00449977       0.00180876      -0.17092848       0.48474525       0.38264417
F        4.12064785      -0.01910232       2.05571805      -0.08413241      -0.05004935       0.21962132
Li       0.03324819       4.03713901      -0.00116087       0.35928441       0.21034889       0.35420931
Li       0.04763243       6.08773575       1.92269434       0.33910048      -0.25552883       0.10516738
Li       2.06851446       4.03086037       2.06734470      -0.09261448       0.18109514      -0.16273078
Li       2.01037163       6.03390865       0.09519012      -0.01126709      -0.22128251       0.23096220
F        2.03284321       6.10045396       2.07218627       0.10730833       0.15904510      -0.15369540
F        0.01731712       6.11466721       0.00784571       0.41422529      -0.48194352       0.33766298
F        2.05164903       4.03992303      -0.03160451       0.01013555       0.11275753      -0.14377352
F        0.03697391       4.09482157       2.02336708      -0.31915026      -0.17623549       0.00984218
Li       4.09908705       3.98892023      -0.00479629      -0.13520532       0.21427291       0.23219530
Li       4.16904911       6.14632622       2.06883721      -0.41378229      -0.25499790      -0.18374183
Li       6.04846376       4.13950683       1.99360764      -0.03416970      -0.25195783       0.16133749
Li       6.04185976       6.03609913       0.05883844      -0.77951734      -0.56905995       0.57203369
F        6.07910355       6.05011073       2.05254314       0.23523794       0.30574967      -0.10165576
F        4.08773926       6.18570330       0.01382027       0.15926261      -0.10760195       0.04530258
F        6.08631388       4.09749004      -0.00774293       0.14468395      -0.00329590      -0.08076941
F        4.09247748       4.09726474       2.02317475      -0.07413030      -0.20859514       0.11111614
Li       0.06092363       0.05224632       4.08014300       0.12953578       0.30718255       0.17263158
Li       0.03735064       2.00935376       6.15236746       0.16709317      -0.07259201      -0.48439558
Li       2.06240598       0.02198914       6.14991563      -0.24510506       0.34703002      -0.40215987
Li       2.03438626       1.99454285       4.14324928      -0.12963939       0.08532154      -0.14060952
F        2.01758671       2.08229037       6.12079403       0.20584355      -0.19462120       0.15878567
F       -0.05527033       2.06565076       4.11141319       0.06981471       0.01377854      -0.21399883
F        2.03294137      -0.00389773       4.06455123       0.19973615      -0.05901170       0.09725043
F       -0.02977664       0.03896157       6.12361917       0.63867205       0.38369961      -0.34774016
Li       4.11143022      -0.00354487       4.12457917      -0.03994260       0.20552345      -0.02374954
Li       4.08171978       2.07582047       6.05207372       0.10844347       0.01999675      -0.00365328
Li       6.13975129       0.02404842       6.11447157      -0.88923943       0.82070744      -0.71652840
Li       6.09828421       2.00293370       4.09935767      -0.14365782       0.16981314      -0.00127527
F        6.05482913       1.99131175       6.11214135       0.22284728      -0.04358945       0.00753050
F        4.06477101       2.07097189       4.10125309      -0.08540408      -0.12925398      -0.21122127
F        6.11395875      -0.00026372       4.08900483       0.09042518      -0.08607179       0.12916734
F        4.11489460      -0.01109451       6.15526466      -0.11209393      -0.05951204      -0.10526739
Li       0.04015427       4.09091141       3.99693103       0.07147641       0.10716435       0.21398289
Li       0.09680586       6.04013098       6.12258566       0.60572002      -0.58668769      -0.86734494
Li       2.00911411       4.04233440       6.04047309       0.00739192       0.23650652      -0.06188517
Li       2.02752052       6.04830354       4.07896637      -0.16211705       0.06522117      -0.03504028
F        2.02043809       6.11737355       6.10021149       0.12330214       0.02549634       0.11804783
F        0.02609513       6.18486785       4.10548654      -0.06520163      -0.20444795       0.02770235
F        2.02464621       4.10407630       4.05092549       0.12106116      -0.34948928       0.02388941
F        0.01488502       4.11624839       6.12180883      -0.00125033      -0.04549233       0.08346649
Li       4.03831256       4.10998097       4.00358621       0.09533033      -0.02188960       0.18865367
Li       4.09886457       6.10297566       6.09425016       0.03395476      -0.39571257      -0.34584526
Li       6.07119583       4.14549112       5.96590121      -0.29162840       0.08954561      -0.10052962
Li       6.03000409       6.09404270       4.09597080      -0.13971992      -0.37373221       0.15733223
F        6.13830113       6.12081796       6.04871335      -0.48297427      -0.35696888      -0.42694685
F        4.06689271       6.08402813       4.05265880       0.10550933       0.28978492       0.02183124
F        6.17535848       4.03086971       4.06169498      -0.00870833       0.06626041      -0.05966476
F        4.07957974       4.13476491       6.11126708      -0.02708811      -0.20837043       0.07216649
64
Lattice="28.160000039244697 0.0 0.0 0.0 28.160000039244697 0.0 0.0 0.0 28.160000039244697" Properties=species:S:1:pos:R:3:REF_forces:R:3 config_type=LIF64_ISOLATED REF_energy=-32504.378849237593 pbc="T T T"
Li       0.14750013       0.00966055       0.12275440       0.49757788       0.70544540       0.62903144
Li      -0.03092027       2.05228197       2.04534361       0.24707581      -0.10521545      -0.00587317
Li       2.13218266       0.05525940       2.04177972      -0.13032922       0.14516088      -0.03357167
Li       2.00107600       2.09010408       0.06770508       0.07100050      -0.14967009       0.01962780
F        1.98730112       2.03369162       1.96169848       0.19803434       0.02378168       0.54822784
F       -0.01059672       2.01779375      -0.02619773      -0.00169281      -0.04372161       0.06038596
F        2.06801330      -0.02044795       0.05578633      -0.08055498      -0.04691749      -0.03606126
F       -0.05811116      -0.01030017       2.06499080       0.12221867       0.07010704      -0.11228110
Li       4.14828305       0.05766385       0.05468676       0.00886079       0.28679782       0.29414500
Li       4.17611181       2.03361643       2.06112314      -0.10847587      -0.01185639      -0.12382227
Li       6.12277211       0.01016628       2.10217833      -0.41888181       0.37891761      -0.31077232
Li       6.15115785       2.00839218       0.00428808      -0.47256619      -0.18111879       0.45754658
F        6.14954499       2.03715590       2.04306885       0.13414268      -0.04426694      -0.00308918
F        4.07264219       2.07333025       0.03274023       0.13021249      -0.15949838      -0.20936416
F        6.06193522      -0.00110996      -0.00005602      -0.18246682       0.47262944       0.37761149
F        4.12104894      -0.01673953       2.05568412      -0.07902954      -0.06350908       0.20827247
Li       0.03521322       4.03630705      -0.00565454       0.35644129       0.20306521       0.35369483
Li       0.05580905       6.08307608       1.92640352       0.31177583      -0.23593265       0.09970712
Li       2.06558779       4.03233647       2.06988000      -0.08083291       0.15215403      -0.17141622
Li       2.01102278       6.03783675       0.09452316      -0.00752408      -0.22799309       0.22596269
F        2.03147628       6.10187427       2.07408452       0.11163910       0.14176626      -0.16226078
F        0.01933313       6.11602054       0.01182152       0.42487454      -0.49282545       0.33056365
F        2.05727774       4.03440084      -0.03529312      -0.01912078       0.14515857      -0.13157543
F        0.03813312       4.09267357       2.02461737      -0.31573353      -0.16335941       0.00428269
Li       4.09848216       3.98428191       0.00401927      -0.12619874       0.22331805       0.20042186
Li       4.16054952       6.13393779       2.06223145      -0.36539798      -0.21909784      -0.16060524
Li       6.03901646       4.14323681       1.98475752       0.00708879      -0.26646579       0.18459569
Li       6.03871598       6.04062473       0.06254797      -0.76386601      -0.57452149       0.57428186
F        6.07975612       6.04698410       2.05351217       0.21704816       0.31983752      -0.10616882
F        4.09145666       6.18836518       0.01766488       0.12327180      -0.10134055       0.04151329
F        6.08332969       4.09931226      -0.00366724       0.13729691      -0.00490284      -0.10289632
F        4.08966926       4.09993728       2.01979540      -0.09732191      -0.21079961       0.12232460
Li       0.05769141       0.04827246       4.07725748       0.15104074       0.32916934       0.16843785
Li       0.03983593       2.01031719       6.16057361       0.15394506      -0.07859271      -0.50730822
Li       2.06583886       0.02287176       6.15738438      -0.27060269       0.34363282      -0.42411658
Li       2.04313008       1.99753443       4.14714014      -0.15142152       0.05849440      -0.16912794
F        2.01674954       2.07737327       6.12259859       0.23004226      -0.17926117       0.16609429
F       -0.05257693       2.06661928       4.11253648       0.06163448       0.02337467      -0.21289583
F        2.03480794      -0.00491194       4.06218208       0.20992157      -0.06432360       0.12439357
F       -0.02904564       0.04008895       6.12452918       0.64007690       0.37653009      -0.33645713
Li       4.11020401      -0.01058197       4.12880973      -0.03670738       0.22725775      -0.06146582
Li       4.08091467       2.06690440       6.06140941       0.11968305       0.04164544      -0.04641921
Li       6.13564530       0.02432132       6.11531635      -0.86752852       0.81769745      -0.72029584
Li       6.09912218       2.00546260       4.10276803      -0.15080420       0.17693663      -0.03242650
F        6.05464326       1.98844572       6.11385290       0.21502727      -0.04273302       0.01523841
F        4.06731111       2.07695065       4.09328286      -0.10510644      -0.14863033      -0.14231030
F        6.11384554      -0.00033028       4.08220758       0.08732238      -0.09432786       0.16546540
F        4.11800265      -0.00856051       6.15565771      -0.12204127      -0.06523814      -0.09758802
Li       0.03654947       4.08884272       3.99593810       0.07161988       0.09875376       0.23252774
Li       0.10391315       6.03545561       6.11436641       0.57638168      -0.56916845      -0.84435491
Li       2.01249573       4.03894295       6.03663258      -0.00711476       0.24240026      -0.04491512
Li       2.02945123       6.04017289       4.07670795      -0.16107267       0.10808841      -0.02397862
F        2.02063747       6.11646569       6.10246667       0.14234964       0.01411330       0.10634160
F        0.02547758       6.18426434       4.11078340      -0.05351751      -0.21570193       0.00685405
F        2.02704457       4.10913723       4.05150713       0.10769246      -0.37309407       0.02821991
F        0.01098155       4.11521674       6.12147924       0.02571206      -0.05914437       0.08115661
Li       4.03799463       4.11517254       4.01095213       0.12124628      -0.04496140       0.16350622
Li       4.09096673       6.09982789       6.09245358       0.04032930      -0.37623133      -0.34321913
Li       6.07176008       4.14617962       5.96846651      -0.29400256       0.09006214      -0.11899451
Li       6.02982589       6.09372565       4.10676921      -0.13723212      -0.36958580       0.10614722
F        6.13481213       6.12398913       6.04467395      -0.48015634      -0.37111920      -0.39104319
F        4.07102944       6.08488455       4.05131119       0.06514713       0.27523839       0.03397250
F        6.17493412       4.03073463       4.06329863      -0.01395852       0.06964013      -0.02770955
F        4.07453311       4.13183796       6.10933301      -0.01647306      -0.20604846       0.08383185
64
Lattice="28.160000039244697 0.0 0.0 0.0 28.160000039244697 0.0 0.0 0.0 28.160000039244697" Properties=species:S:1:pos:R:3:REF_forces:R:3 config_type=LIF64_ISOLATED REF_energy=-32504.39421264887 pbc="T T T"
Li       0.15490777       0.00502283       0.12863041       0.47281430       0.71155460       0.61833128
Li      -0.02673334       2.05492604       2.03418147       0.23707474      -0.11204636       0.02594115
Li       2.13552773       0.05133332       2.03626640      -0.13733419       0.15741039       0.00002288
Li       2.00776428       2.09141832       0.06919225       0.05077723      -0.15974547       0.00556978
F        1.98555031       2.03457744       1.95882230       0.22810056       0.03292580       0.54579326
F       -0.01285638       2.01698662      -0.02226551       0.01524638      -0.03588154       0.05571863
F        2.06890630      -0.01763779       0.06125481      -0.06730942      -0.05802003      -0.06180521
F       -0.05681653      -0.01017875       2.06325700       0.11776192       0.05138221      -0.10483519
Li       4.15912386       0.06553833       0.04822819      -0.02649059       0.26860109       0.31574047
Li       4.17539360       2.03167555       2.06918774      -0.10390111      -0.02806899      -0.13099693
Li       6.12936870       0.01779525       2.09809520      -0.43841731       0.36507274      -0.28939566
Li       6.15070736       2.00227452      -0.00146366      -0.46800788      -0.16050523       0.46099443
F        6.14862701       2.03947162       2.04322479       0.14209253      -0.05006863      -0.00334938
F        4.07680207       2.06641291       0.02834037       0.11394898      -0.12622368      -0.19901007
F        6.06408039       0.00475376      -0.00078543      -0.16041035       0.46060285       0.37277396
F        4.11826489      -0.01624362       2.05925494      -0.05197305      -0.05675145       0.18590953
Li       0.04223035       4.03288962      -0.00128126       0.34229816       0.21512934       0.34328238
Li       0.05463002       6.08872838       1.92609200       0.32438683      -0.24847270       0.10267109
Li       2.07159688       4.02658714       2.07076085      -0.12162526       0.17321805      -0.16194967
Li       2.01331247       6.03875611       0.09632096      -0.01621543      -0.22547469       0.22190163
F        2.03628882       6.10343758       2.07791362       0.11377800       0.13674026      -0.18419846
F        0.02451714       6.11942441       0.01204312       0.42162364      -0.48479461       0.33695001
F        2.05565178       4.03806313      -0.04241380       0.01078629       0.10934182      -0.10958813
F        0.04393623       4.09577142       2.02463462      -0.32046873      -0.16432023      -0.01360088
Li       4.09797236       3.97955553       0.00862964      -0.12568658       0.22839881       0.17629797
Li       4.15931680       6.12845083       2.06292055      -0.37726877      -0.19572369      -0.15303643
Li       6.04707032       4.14458272       1.97649041      -0.01200628      -0.28149723       0.20599319
Li       6.03543822       6.03853460       0.06410852      -0.76010397      -0.56526371       0.55907790
F        6.07937855       6.04967515       2.05454643       0.21296653       0.29171454      -0.12103777
F        4.09187834       6.18419929       0.01754388       0.13118668      -0.10582686       0.04990460
F        6.08316571       4.09332757      -0.00582704       0.13519195       0.01533843      -0.08702644
F        4.08593908       4.09560442       2.02192593      -0.07243260      -0.20978813       0.10229340
Li       0.04583307       0.04146584       4.07754154       0.19137904       0.36365503       0.16158329
Li       0.03851475       2.00744837       6.15883735       0.14914044      -0.06885851      -0.51540308
Li       2.06210023       0.02285925       6.16301782      -0.26737262       0.34467232      -0.44340551
Li       2.04532434       2.00147813       4.15332019      -0.18344075       0.02889483      -0.17633500
F        2.01876575       2.07430224       6.12418265       0.21971902      -0.15796061       0.18098895
F       -0.05153303       2.06774441       4.11139293       0.05615804       0.01713769      -0.20563477
F        2.03293925      -0.00503349       4.06831805       0.20667607      -0.07317977       0.10923717
F       -0.03420245       0.04263936       6.12456737       0.63264693       0.36345294      -0.32829234
Li       4.10425673      -0.01112010       4.13034750      -0.03590571       0.22659903      -0.06155761
Li       4.07581546       2.06810308       6.06477272       0.12485791       0.04064091      -0.05080834
Li       6.13036409       0.02455059       6.11360183      -0.86485380       0.81016155      -0.71389276
Li       6.10905645       2.00077369       4.10540959      -0.17866159       0.18349552      -0.03417279
F        6.05312194       1.98823730       6.11130088       0.22085930      -0.03728768       0.01665458
F        4.06219898       2.07136127       4.09706325      -0.08643123      -0.11701322      -0.15938886
F        6.11617773       0.00118981       4.07985004       0.09002975      -0.09035242       0.16694841
F        4.11802479      -0.01034851       6.15857671      -0.11440741      -0.06587423      -0.09639349
Li       0.04032318       4.09225268       3.99462232       0.05446239       0.08792941       0.22953575
Li       0.11002932       6.03382523       6.11667216       0.56183772      -0.55878222      -0.84836454
Li       2.00832019       4.04198792       6.03655202       0.00380755       0.24350995      -0.04272608
Li       2.02957262       6.04353835       4.07365128      -0.16280328       0.10202729      -0.01232741
F        2.02240276       6.11821554       6.10014972       0.13082210       0.00807044       0.11134111
F        0.02808520       6.18607278       4.10942079      -0.05991056      -0.20968143       0.00432562
F        2.01840872       4.10871993       4.05409790       0.16347022      -0.37868776       0.01769150
F        0.00708958       4.11620929       6.12174536       0.04244711      -0.05944133       0.08840764
Li       4.03770196       4.11057056       4.00161445       0.11958664      -0.02799083       0.20952768
Li       4.09814399       6.10055214       6.08236349       0.03029762      -0.37416570      -0.32306143
Li       6.06840105       4.13935900       5.96672084      -0.30232522       0.10953337      -0.11127503
Li       6.03076688       6.09083159       4.10114531      -0.14741960      -0.36559647       0.12998598
F        6.12708044       6.12499833       6.04374611      -0.45425685      -0.36923021      -0.40311247
F        4.06718044       6.08378577       4.05270839       0.08664361       0.26415154       0.00265801
F        6.17350802       4.03255171       4.06229479      -0.00704559       0.05554380      -0.04251139
F        4.07666786       4.13623108       6.11018651      -0.03039172      -0.24433039       0.07443961
64
Lattice="28.160000039244697 0.0 0.0 0.0 28.160000039244697 0.0 0.0 0.0 28.160000039244697" Properties=species:S:1:pos:R:3:REF_forces:R:3 config_type=LIF64_ISOLATED REF_energy=-32504.396055403784 pbc="T T T"
Li       0.16325348       0.01532121       0.13032484       0.42629045       0.67214576       0.59680267
Li      -0.03154846       2.06383708       2.03121999       0.23999731      -0.12074466       0.04368330
Li       2.12436356       0.05121870       2.03191367      -0.09638063       0.15272301       0.01741331
Li       2.00004680       2.09246808       0.06755896       0.09005186      -0.16683966       0.02122394
F        1.98591493       2.03336225       1.96045703       0.20243632       0.03692207       0.54060169
F       -0.01293950       2.01742890      -0.02281185       0.02053360      -0.01949102       0.06101768
F        2.06686935      -0.01313946       0.05316728      -0.05893251      -0.04633308      -0.04529770
F       -0.06189920      -0.01877034       2.06069034       0.14754610       0.08906867      -0.10324548
Li       4.15587228       0.06839054       0.04226299      -0.01064205       0.26802876       0.33225826
Li       4.18367779       2.03827535       2.07402834      -0.12363612      -0.05897262      -0.16335273
Li       6.12081596       0.01649328       2.10090309      -0.42490231       0.35422602      -0.30068589
Li       6.14453437       1.99895997      -0.00515666      -0.45822920      -0.15484263       0.45843541
F        6.14474608       2.03968553       2.04107019       0.15021336      -0.04581474       0.02110130
F        4.08066223       2.06970617       0.03156778       0.08564859      -0.13232568      -0.21039543
F        6.06243812       0.00252609      -0.00415132      -0.17124087       0.46643848       0.36605130
F        4.12151319      -0.01477399       2.05626102      -0.08395629      -0.05193294       0.18969702
Li       0.04780264       4.02916247      -0.00657167       0.32808793       0.23222461       0.35804874
Li       0.05449221       6.08957662       1.92099236       0.31819896      -0.25348300       0.13020478
Li       2.07683832       4.02756890       2.07270656      -0.14174492       0.17555184      -0.16407109
Li       2.00833471       6.04758034       0.10116585      -0.00163496      -0.23285581       0.21553224
F        2.03660294       6.10060266       2.07744773       0.12285271       0.14279547      -0.18700687
F        0.02415101       6.12004813       0.01196748       0.43035202      -0.48639693       0.32519698
F        2.05827620       4.03595081      -0.03275384      -0.00812237       0.12337079      -0.13211819
F        0.04205484       4.09784464       2.02775714      -0.31607317      -0.18381691      -0.03413397
Li       4.08903415       3.98245625       0.01155421      -0.09007937       0.21595621       0.16293312
Li       4.16129998       6.12754965       2.06376951      -0.37550165      -0.18247916      -0.15662209
Li       6.04339197       4.14205811       1.97342469       0.01927890      -0.26940302       0.19982151
Li       6.03601343       6.04300447       0.06130247      -0.75797921      -0.58403765       0.56285202
F        6.08122415       6.05102123       2.05793880       0.18743573       0.27720940      -0.13917150
F        4.09272693       6.19109535       0.01461258       0.12845694      -0.12096449       0.06792726
F        6.08303893       4.08746768      -0.00881929       0.11790591       0.05806528      -0.07167953
F        4.08683273       4.09725197       2.02430625      -0.07456431      -0.20404763       0.10269192
Li       0.04248630       0.04134985       4.07582420       0.19816341       0.35372620       0.17144142
Li       0.03246832       2.00902629       6.15351564       0.16856152      -0.08100492      -0.50008136
Li       2.05982912       0.02905956       6.15908954      -0.27049805       0.33014430      -0.43628098
Li       2.05210474       2.00398795       4.14442653      -0.19867865       0.01945888      -0.14638782
F        2.01958948       2.07031742       6.12515735       0.20648967      -0.14722625       0.15362341
F       -0.05479956       2.06963832       4.11347397       0.05440326       0.01573387      -0.21748627
F        2.03566993      -0.00415402       4.06715143       0.18532486      -0.05740939       0.09367634
F       -0.03686266       0.03677174       6.12382926       0.63063221       0.38639490      -0.34540508
Li       4.10253203      -0.00213451       4.12923352      -0.03440213       0.18513923      -0.06379447
Li       4.08300140       2.05562996       6.05981122       0.11010595       0.07047214      -0.02249561
Li       6.13222449       0.02435328       6.11708479      -0.86209398       0.80429403      -0.72282374
Li       6.10369982       1.99755115       4.10098521      -0.14560980       0.19107179      -0.01269071
F        6.05722274       1.98847109       6.11314041       0.20786701      -0.05189000       0.00631823
F        4.06562926       2.07148000       4.09739776      -0.08900722      -0.11252664      -0.17502065
F        6.11408202      -0.00007247       4.08222381       0.09230260      -0.07566037       0.15273510
F        4.11945407      -0.01413453       6.15255587      -0.11115265      -0.04374783      -0.08377143
Li       0.03751685       4.09033680       3.99622673       0.05714302       0.10667224       0.23180063
Li       0.11578413       6.03761941       6.12680415       0.55399637      -0.56133867      -0.85465809
Li       2.00705268       4.04423168       6.03307895       0.01535514       0.22066956      -0.01442723
Li       2.02664857       6.03796294       4.07657422      -0.16780151       0.12311188      -0.01421332
F        2.02434799       6.11600859       6.10604043       0.12934140       0.00690804       0.09402319
F        0.03350879       6.18614044       4.10748320      -0.06325762      -0.20814031       0.01559837
F        2.01997396       4.10788949       4.05580989       0.15904330      -0.39074083       0.00545434
F        0.00595360       4.12273180       6.12723272       0.04501770      -0.07800521       0.07142859
Li       4.04060195       4.11470010       4.00071191       0.11966557      -0.04534937       0.23434474
Li       4.09995213       6.09101199       6.07416221       0.02632912      -0.35047041      -0.28363279
Li       6.07068986       4.14229308       5.96543470      -0.30057173       0.09782302      -0.09788833
Li       6.02291423       6.08787573       4.10194161      -0.10774953      -0.35469268       0.12987593
F        6.12558384       6.12575088       6.04367755      -0.45582779      -0.37313315      -0.40786232
F        4.06580105       6.08024074       4.05753276       0.08002481       0.26899113      -0.02515542
F        6.17682648       4.03483597       4.06429020      -0.02883826       0.04415638      -0.06055976
F        4.07761193       4.13352319       6.11007151      -0.02594526      -0.24337651       0.05860110
64
Lattice="28.160000039244697 0.0 0.0 0.0 28.160000039244697 0.0 0.0 0.0 28.160000039244697" Properties=species:S:1:pos:R:3:REF_forces:R:3 config_type=LIF64_ISOLATED REF_energy=-32504.38910602452 pbc="T T T"
Li       0.15977083       0.01872864       0.12171371       0.42803931       0.67918544       0.61481659
Li      -0.03095141       2.05837694       2.03806767       0.23953837      -0.09756797       0.01739480
Li       2.12291427       0.04488400       2.02392260      -0.08967236       0.16844197       0.04932507
Li       2.00329800       2.09124997       0.06694211       0.07974971      -0.13725474       0.02803454
F        1.98483592       2.03613951       1.95895618       0.20668327       0.00731402       0.54380169
F       -0.01878928       2.01596442      -0.02420108       0.04299373      -0.03034236       0.05277369
F        2.06926070      -0.01178988       0.05500257      -0.06881918      -0.04984006      -0.06415237
F       -0.06066491      -0.01938049       2.06089012       0.14960607       0.09070132      -0.11353220
Li       4.14811896       0.06630276       0.03964668       0.02050095       0.28026233       0.34328290
Li       4.18532395       2.04312877       2.07514483      -0.12738171      -0.07754241      -0.14981818
Li       6.12035541       0.01195026       2.10097521      -0.43929663       0.36517044      -0.30617314
Li       6.14516019       2.00058101      -0.00563607      -0.46413966      -0.16348797       0.46025549
F        6.13946280       2.04194974       2.04001069       0.17619744      -0.04419135       0.01657127
F        4.08303303       2.07181207       0.02792186       0.06433311      -0.14044394      -0.20420293
F        6.05918724       0.00722295      -0.00363451      -0.16995352       0.44952371       0.36009740
F        4.12225798      -0.01935512       2.06031593      -0.10845325      -0.05023858       0.16212734
Li       0.04821245       4.02921796      -0.01437716       0.33173941       0.23581593       0.37657174
Li       0.05505611       6.09167289       1.92329303       0.32698416      -0.26509385       0.11461824
Li       2.08008321       4.02725222       2.07706280      -0.15990590       0.18154482      -0.19050126
Li       2.00784149       6.04399701       0.10920861       0.01737397      -0.21583794       0.19260417
F        2.04257397       6.10252258       2.08199305       0.09611838       0.12841889      -0.18287768
F        0.02338165       6.12149503       0.00525129       0.43138123      -0.49465222       0.36609424
F        2.05862109       4.04242122      -0.03303319      -0.00677203       0.07628257      -0.13133709
F        0.04649171       4.09504494       2.02782582      -0.32364661      -0.16640668      -0.02589589
Li       4.09370858       3.98022744       0.00841053      -0.11223894       0.24443915       0.15774181
Li       4.17028565       6.12558570       2.07295999      -0.41796367      -0.15680721      -0.19235271
Li       6.03830600       4.14320959       1.97783461       0.02984768      -0.27808666       0.20503185
Li       6.04746534       6.03354365       0.07061369      -0.79220933      -0.54405006       0.52955032
F        6.08134882       6.05861755       2.05699491       0.20179715       0.23731205      -0.12267967
F        4.09068617       6.19357979       0.01058925       0.16291769      -0.14812254       0.09861106
F        6.08355034       4.08913675      -0.01091049       0.12480906       0.04961612      -0.04640378
F        4.08506213       4.09299007       2.02980758      -0.05744024      -0.17422566       0.07476717
Li       0.04243809       0.03897699       4.07302612       0.20561832       0.34084986       0.18969959
Li       0.03928514       2.01375986       6.15211067       0.13691999      -0.10577390      -0.49431155
Li       2.06422498       0.04247193       6.16210034      -0.28323992       0.27886828      -0.44643118
Li       2.04679892       2.00154455       4.14182718      -0.16505917       0.00594696      -0.16255543
F        2.02028444       2.06575150       6.12518331       0.20285387      -0.12341809       0.16147736
F       -0.05360745       2.07100331       4.11394462       0.06203763       0.01130437      -0.21324215
F        2.03399600      -0.00864091       4.07059478       0.19029249      -0.03642019       0.07115039
F       -0.03339260       0.03605370       6.12025935       0.62201850       0.40561569      -0.33491730
Li       4.09852082      -0.00957158       4.12624774      -0.02583676       0.20800765      -0.06337409
Li       4.07056934       2.05735629       6.07060968       0.16371371       0.07165793      -0.08055600
Li       6.12976988       0.02541311       6.12167149      -0.86703898       0.81025308      -0.73726332
Li       6.10912956       1.99352807       4.09634308      -0.18241257       0.20193650       0.00187485
F        6.05896915       1.98879870       6.10992401       0.20409931      -0.05235357       0.03090800
F        4.06665470       2.07531520       4.09667647      -0.12172451      -0.12835307      -0.15781791
F        6.10913842       0.00115811       4.07607655       0.11552764      -0.08935689       0.16999671
F        4.12005239      -0.01551112       6.15154812      -0.11419632      -0.03202720      -0.06468253
Li       0.04234620       4.08545695       3.99956276       0.03503462       0.12023018       0.19965722
Li       0.11346626       6.02915535       6.12009313       0.56320760      -0.52199796      -0.83717279
Li       2.00533957       4.03858457       6.02578068       0.03269055       0.24786951       0.01635042
Li       2.02921275       6.03182927       4.08509536      -0.17336563       0.15967193      -0.03912268
F        2.02684129       6.11637686       6.10954752       0.11339259      -0.01200757       0.07341194
F        0.03575942       6.18565276       4.10817041      -0.06632443      -0.21779918       0.02137409
F        2.01837285       4.10586226       4.05621933       0.16294058      -0.39361918       0.02436557
F        0.00621699       4.12372280       6.12623841       0.05332339      -0.11154937       0.06516024
Li       4.03724768       4.11669612       3.99911095       0.14600266      -0.07387371       0.25230570
Li       4.10188105       6.09004464       6.06814273       0.01365461      -0.34653406      -0.26146474
Li       6.07347282       4.14057898       5.97667789      -0.31963723       0.08350789      -0.14891907
Li       6.02927404       6.09072769       4.10690987      -0.12312782      -0.36570446       0.12574031
F        6.12364791       6.12607009       6.04518084      -0.44404314      -0.37902226      -0.40334644
F        4.06457695       6.08205356       4.05967840       0.10093611       0.25530206      -0.01942983
F        6.17279154       4.03529544       4.06168805      -0.00927963       0.06896470      -0.03766409
F        4.07382566       4.13087274       6.11200881      -0.02169600      -0.24001197       0.06465373
64
Lattice="28.160000039244697 0.0 0.0 0.0 28.160000039244697 0.0 0.0 0.0 28.160000039244697" Properties=species:S:1:pos:R:3:REF_forces:R:3 config_type=LIF64_ISOLATED REF_energy=-32504.3945002732 pbc="T T T"
Li       0.16567873       0.01988902       0.12564124       0.41171178       0.66992947       0.60277431
Li      -0.03789344       2.05626403       2.03835236       0.24478650      -0.08870049       0.00758784
Li       2.12495263       0.05227519       2.03655907      -0.10160254       0.14519971       0.00945497
Li       2.00887971       2.09475612       0.06128980       0.05309997      -0.14739235       0.05918140
F        1.98596919       2.04169545       1.96323340       0.20480354      -0.01431410       0.51825829
F       -0.02054755       2.01406521      -0.02568836       0.05942514      -0.02305791       0.05794290
F        2.06969501      -0.01249381       0.05523202      -0.04474414      -0.02997958      -0.05151308
F       -0.06427623      -0.02231643       2.05781294       0.15535505       0.10793620      -0.09660432
Li       4.15048087       0.06729964       0.03525765      -0.00827818       0.25967936       0.34639573
Li       4.19038192       2.04449964       2.06583107      -0.14076224      -0.07765631      -0.10871961
Li       6.10905273       0.00196195       2.09427862      -0.41291480       0.38052584      -0.28458152
Li       6.14033978       2.00032868      -0.00359584      -0.43557856      -0.16180518       0.45921111
F        6.13664302       2.03912152       2.03780069       0.16898627      -0.04412707       0.00425106
F        4.08229924       2.07331998       0.02499286       0.07700068      -0.15047458      -0.19725941
F        6.05737083       0.00279645      -0.00254613      -0.17911642       0.45448979       0.35951427
F        4.12119974      -0.02378564       2.06234995      -0.10505759      -0.03787518       0.15345783
Li       0.05145661       4.02703436      -0.02076412       0.32335376       0.24852900       0.39377242
Li       0.04951818       6.08833077       1.93212411       0.32449199      -0.26522446       0.07982375
Li       2.07826043       4.03263228       2.08283260      -0.17270280       0.16943184      -0.21755209
Li       2.01649179       6.04605011       0.11371026      -0.01937198      -0.22142212       0.18790239
F        2.03805282       6.09791502       2.08392683       0.12758637       0.14353158      -0.17155840
F        0.02468607       6.12314245       0.00859245       0.43663734      -0.49031374       0.36242167
F        2.05673228       4.04161727      -0.03296965       0.01718345       0.07714389      -0.13634483
F        0.04138747       4.09848714       2.02570487      -0.31314982      -0.19486211       0.00043709
Li       4.09803442       3.97814460       0.01368790      -0.12605425       0.26524580       0.14504801
Li       4.16968342       6.12686595       2.07497582      -0.40755996      -0.15553966      -0.19606461
Li       6.03507522       4.14433345       1.97709789       0.05678796      -0.27581818       0.21496402
Li       6.04527573       6.03674052       0.07231451      -0.77921395      -0.54498157       0.52831568
F        6.08268486       6.06009726       2.05042088       0.18665643       0.24595379      -0.09615797
F        4.08966574       6.19459355       0.01474039       0.15540570      -0.14626029       0.09631455
F        6.08737134       4.09106232      -0.00631153       0.10182006       0.03726763      -0.05952387
F        4.08516814       4.09462660       2.03017071      -0.05571092      -0.17400249       0.06167845
Li       0.03938943       0.03718194       4.07347988       0.20630686       0.34368784       0.19594480
Li       0.04554806       2.01262922       6.14685931       0.12817386      -0.11226233      -0.47484187
Li       2.07190071       0.04271046       6.16183979      -0.30789115       0.28912775      -0.44292754
Li       2.05280630       2.00407495       4.12911860      -0.17756141      -0.00024014      -0.12889737
F        2.02050915       2.06101723       6.13129295       0.22375848      -0.10708825       0.12058371
F       -0.05615945       2.06695066       4.11551710       0.06957431       0.03700383      -0.23101131
F        2.02693065      -0.00953201       4.06730976       0.22903593      -0.03182409       0.07207471
F       -0.03018587       0.04062991       6.11964521       0.61054855       0.37892096      -0.33137869
Li       4.10144119      -0.01178531       4.12486849      -0.02344872       0.21326658      -0.06409812
Li       4.07089192       2.05361822       6.06102419       0.15625160       0.09727589      -0.05668151
Li       6.12232977       0.01986821       6.12820470      -0.85179696       0.82289931      -0.74685096
Li       6.11083271       1.99139543       4.10009497      -0.18359708       0.20502362      -0.01117479
F        6.05821209       1.98991110       6.10950779       0.20579804      -0.04931427       0.03708945
F        4.06529365       2.07580947       4.09525882      -0.11975556      -0.13400358      -0.16705434
F        6.10639711       0.00554315       4.08060879       0.11567393      -0.11415904       0.14696786
F        4.12488637      -0.01683424       6.14903440      -0.13258125      -0.04302381      -0.06183632
Li       0.04875298       4.08052019       4.00225042       0.00818459       0.12275732       0.19222981
Li       0.11683830       6.03805402       6.11797432       0.56276075      -0.54817334      -0.82999041
Li       2.00300831       4.03957572       6.02762607       0.05179153       0.24042180       0.02196931
Li       2.02562483       6.03678617       4.08019684      -0.16283876       0.14234167      -0.01632702
F        2.03129194       6.11895645       6.10845149       0.09024186      -0.00023191       0.06360524
F        0.03462011       6.18552622       4.10627069      -0.05787270      -0.21005861       0.03099028
F        2.01872034       4.10447397       4.05322700       0.15291919      -0.38187438       0.04162539
F        0.00977358       4.12436211       6.13085577       0.06167614      -0.09178658       0.04278264
Li       4.03575059       4.12449115       3.99452531       0.15388669      -0.09865091       0.28461752
Li       4.10648738       6.09421503       6.07002893       0.00737032      -0.37098370      -0.26430323
Li       6.07991646       4.13572039       5.98152176      -0.34412750       0.09148859      -0.17435782
Li       6.03146808       6.09206753       4.10369099      -0.12024124      -0.38103363       0.14064063
F        6.12442893       6.12259561       6.04449499      -0.43379087      -0.36489713      -0.40055139
F        4.06480745       6.08006487       4.06185410       0.10640433       0.27973500      -0.05331157
F        6.17741269       4.03739852       4.05789188      -0.01666049       0.06348182      -0.02946047
F        4.07215915       4.13297968       6.11102997      -0.01146712      -0.24888304       0.06110509
